p edge 1000 9426
e 1 258
e 1 265
e 1 285
e 1 306
e 1 310
e 1 320
e 1 321
e 1 327
e 1 335
e 1 377
e 1 378
e 1 400
e 1 438
e 1 484
e 1 492
e 1 494
e 1 507
e 1 511
e 1 532
e 1 549
e 1 599
e 1 652
e 1 700
e 1 709
e 1 727
e 1 731
e 1 745
e 1 748
e 1 759
e 1 764
e 1 773
e 1 779
e 1 782
e 1 785
e 1 878
e 1 902
e 1 919
e 1 988
e 2 300
e 2 317
e 2 331
e 2 332
e 2 339
e 2 346
e 2 378
e 2 379
e 2 389
e 2 401
e 2 419
e 2 434
e 2 435
e 2 465
e 2 468
e 2 473
e 2 475
e 2 483
e 2 515
e 2 542
e 2 548
e 2 601
e 2 605
e 2 640
e 2 677
e 2 680
e 2 696
e 2 701
e 2 725
e 2 857
e 2 886
e 2 888
e 2 900
e 2 902
e 2 920
e 2 941
e 2 988
e 2 996
e 3 255
e 3 275
e 3 297
e 3 305
e 3 393
e 3 406
e 3 407
e 3 480
e 3 492
e 3 508
e 3 513
e 3 515
e 3 527
e 3 536
e 3 544
e 3 546
e 3 552
e 3 558
e 3 588
e 3 630
e 3 661
e 3 690
e 3 728
e 3 774
e 3 781
e 3 790
e 3 791
e 3 817
e 3 847
e 3 881
e 3 901
e 3 938
e 3 965
e 3 983
e 4 256
e 4 309
e 4 326
e 4 334
e 4 362
e 4 374
e 4 410
e 4 417
e 4 424
e 4 510
e 4 526
e 4 543
e 4 560
e 4 567
e 4 582
e 4 594
e 4 600
e 4 666
e 4 700
e 4 707
e 4 788
e 4 795
e 4 826
e 4 840
e 4 849
e 4 856
e 4 869
e 4 877
e 4 908
e 4 916
e 5 272
e 5 273
e 5 319
e 5 326
e 5 356
e 5 361
e 5 362
e 5 363
e 5 402
e 5 410
e 5 427
e 5 433
e 5 466
e 5 467
e 5 500
e 5 534
e 5 560
e 5 566
e 5 584
e 5 627
e 5 661
e 5 664
e 5 669
e 5 691
e 5 734
e 5 762
e 5 830
e 5 865
e 5 913
e 5 934
e 5 949
e 5 956
e 5 981
e 6 253
e 6 261
e 6 274
e 6 278
e 6 288
e 6 299
e 6 305
e 6 312
e 6 320
e 6 362
e 6 373
e 6 394
e 6 398
e 6 434
e 6 480
e 6 499
e 6 547
e 6 563
e 6 568
e 6 599
e 6 615
e 6 633
e 6 642
e 6 651
e 6 689
e 6 749
e 6 765
e 6 767
e 6 772
e 6 791
e 6 819
e 6 864
e 6 876
e 6 890
e 6 891
e 6 899
e 6 910
e 6 917
e 6 937
e 6 938
e 6 939
e 6 949
e 6 955
e 6 979
e 6 987
e 6 990
e 7 264
e 7 269
e 7 293
e 7 294
e 7 321
e 7 328
e 7 331
e 7 348
e 7 352
e 7 360
e 7 444
e 7 452
e 7 487
e 7 507
e 7 511
e 7 512
e 7 526
e 7 528
e 7 550
e 7 557
e 7 569
e 7 582
e 7 616
e 7 618
e 7 626
e 7 641
e 7 649
e 7 665
e 7 668
e 7 697
e 7 706
e 7 713
e 7 721
e 7 779
e 7 802
e 7 811
e 7 815
e 7 818
e 7 834
e 7 840
e 7 844
e 7 856
e 7 931
e 7 958
e 7 974
e 7 985
e 7 994
e 8 264
e 8 266
e 8 269
e 8 382
e 8 419
e 8 442
e 8 456
e 8 461
e 8 483
e 8 487
e 8 492
e 8 519
e 8 525
e 8 534
e 8 547
e 8 581
e 8 603
e 8 607
e 8 627
e 8 629
e 8 646
e 8 657
e 8 740
e 8 742
e 8 747
e 8 782
e 8 833
e 8 841
e 8 847
e 8 860
e 8 881
e 8 883
e 8 890
e 8 899
e 8 910
e 8 985
e 9 272
e 9 285
e 9 298
e 9 300
e 9 302
e 9 329
e 9 338
e 9 418
e 9 445
e 9 468
e 9 547
e 9 559
e 9 595
e 9 598
e 9 656
e 9 681
e 9 701
e 9 719
e 9 730
e 9 785
e 9 865
e 9 927
e 9 970
e 10 251
e 10 255
e 10 260
e 10 267
e 10 279
e 10 281
e 10 293
e 10 301
e 10 302
e 10 321
e 10 345
e 10 347
e 10 355
e 10 364
e 10 380
e 10 402
e 10 403
e 10 409
e 10 436
e 10 452
e 10 461
e 10 468
e 10 498
e 10 499
e 10 541
e 10 555
e 10 565
e 10 624
e 10 639
e 10 660
e 10 669
e 10 674
e 10 681
e 10 706
e 10 740
e 10 775
e 10 776
e 10 782
e 10 788
e 10 796
e 10 837
e 10 876
e 10 914
e 10 940
e 10 962
e 10 978
e 11 258
e 11 259
e 11 264
e 11 311
e 11 359
e 11 409
e 11 464
e 11 486
e 11 490
e 11 491
e 11 525
e 11 652
e 11 691
e 11 726
e 11 748
e 11 787
e 11 797
e 11 809
e 11 817
e 11 828
e 11 836
e 11 891
e 11 892
e 11 906
e 11 929
e 11 932
e 11 945
e 11 958
e 11 962
e 11 971
e 11 978
e 11 981
e 11 982
e 12 262
e 12 312
e 12 350
e 12 374
e 12 384
e 12 399
e 12 443
e 12 475
e 12 489
e 12 504
e 12 508
e 12 522
e 12 538
e 12 573
e 12 576
e 12 581
e 12 588
e 12 624
e 12 628
e 12 635
e 12 657
e 12 671
e 12 682
e 12 712
e 12 733
e 12 744
e 12 750
e 12 754
e 12 783
e 12 799
e 12 804
e 12 865
e 12 893
e 12 925
e 12 987
e 12 1000
e 13 257
e 13 275
e 13 281
e 13 292
e 13 296
e 13 343
e 13 365
e 13 372
e 13 389
e 13 410
e 13 418
e 13 435
e 13 465
e 13 474
e 13 482
e 13 538
e 13 612
e 13 619
e 13 643
e 13 646
e 13 669
e 13 690
e 13 726
e 13 728
e 13 753
e 13 755
e 13 786
e 13 800
e 13 802
e 13 805
e 13 833
e 13 835
e 13 842
e 13 847
e 13 848
e 13 860
e 13 878
e 13 905
e 13 927
e 13 941
e 13 979
e 13 989
e 13 990
e 14 261
e 14 269
e 14 315
e 14 378
e 14 393
e 14 418
e 14 470
e 14 490
e 14 493
e 14 526
e 14 539
e 14 549
e 14 564
e 14 600
e 14 630
e 14 714
e 14 729
e 14 730
e 14 732
e 14 735
e 14 756
e 14 762
e 14 769
e 14 777
e 14 798
e 14 818
e 14 823
e 14 826
e 14 847
e 14 896
e 14 925
e 14 931
e 14 937
e 14 962
e 15 256
e 15 273
e 15 341
e 15 402
e 15 428
e 15 430
e 15 435
e 15 492
e 15 497
e 15 544
e 15 562
e 15 596
e 15 620
e 15 622
e 15 650
e 15 652
e 15 667
e 15 684
e 15 694
e 15 701
e 15 709
e 15 727
e 15 748
e 15 792
e 15 801
e 15 803
e 15 811
e 15 814
e 15 829
e 15 910
e 15 912
e 15 934
e 15 939
e 15 958
e 15 967
e 15 970
e 15 984
e 15 986
e 15 987
e 16 265
e 16 283
e 16 291
e 16 315
e 16 376
e 16 400
e 16 402
e 16 447
e 16 487
e 16 488
e 16 505
e 16 533
e 16 542
e 16 571
e 16 573
e 16 584
e 16 602
e 16 603
e 16 612
e 16 616
e 16 675
e 16 676
e 16 696
e 16 701
e 16 713
e 16 774
e 16 800
e 16 802
e 16 803
e 16 815
e 16 816
e 16 821
e 16 823
e 16 858
e 16 868
e 16 936
e 16 949
e 16 984
e 16 989
e 16 996
e 17 272
e 17 301
e 17 322
e 17 337
e 17 343
e 17 360
e 17 365
e 17 436
e 17 458
e 17 465
e 17 488
e 17 489
e 17 490
e 17 533
e 17 539
e 17 541
e 17 583
e 17 594
e 17 617
e 17 625
e 17 627
e 17 630
e 17 631
e 17 635
e 17 646
e 17 673
e 17 738
e 17 782
e 17 786
e 17 803
e 17 832
e 17 841
e 17 912
e 17 917
e 17 919
e 17 956
e 17 967
e 17 987
e 18 258
e 18 275
e 18 312
e 18 318
e 18 324
e 18 328
e 18 343
e 18 346
e 18 386
e 18 400
e 18 411
e 18 431
e 18 436
e 18 437
e 18 460
e 18 465
e 18 531
e 18 534
e 18 540
e 18 552
e 18 594
e 18 620
e 18 650
e 18 656
e 18 685
e 18 692
e 18 700
e 18 715
e 18 724
e 18 785
e 18 807
e 18 808
e 18 823
e 18 835
e 18 841
e 18 851
e 18 853
e 18 855
e 18 857
e 18 871
e 18 872
e 18 889
e 18 918
e 18 929
e 18 945
e 18 955
e 18 987
e 18 998
e 19 308
e 19 340
e 19 343
e 19 346
e 19 352
e 19 412
e 19 420
e 19 425
e 19 482
e 19 498
e 19 534
e 19 575
e 19 619
e 19 643
e 19 676
e 19 688
e 19 752
e 19 759
e 19 813
e 19 842
e 19 909
e 19 915
e 19 991
e 20 252
e 20 253
e 20 256
e 20 270
e 20 272
e 20 276
e 20 280
e 20 288
e 20 294
e 20 309
e 20 330
e 20 331
e 20 346
e 20 388
e 20 410
e 20 416
e 20 429
e 20 448
e 20 463
e 20 476
e 20 491
e 20 495
e 20 538
e 20 550
e 20 560
e 20 569
e 20 574
e 20 580
e 20 585
e 20 596
e 20 603
e 20 611
e 20 633
e 20 660
e 20 694
e 20 700
e 20 722
e 20 757
e 20 775
e 20 849
e 20 856
e 20 882
e 20 883
e 20 932
e 20 939
e 20 945
e 20 960
e 21 256
e 21 276
e 21 301
e 21 352
e 21 353
e 21 361
e 21 364
e 21 372
e 21 426
e 21 454
e 21 470
e 21 479
e 21 508
e 21 510
e 21 533
e 21 561
e 21 630
e 21 635
e 21 640
e 21 645
e 21 656
e 21 668
e 21 674
e 21 699
e 21 737
e 21 747
e 21 753
e 21 762
e 21 768
e 21 811
e 21 813
e 21 829
e 21 836
e 21 889
e 21 897
e 21 931
e 21 952
e 21 974
e 22 272
e 22 276
e 22 286
e 22 290
e 22 325
e 22 327
e 22 329
e 22 330
e 22 336
e 22 346
e 22 361
e 22 401
e 22 402
e 22 404
e 22 492
e 22 514
e 22 564
e 22 572
e 22 602
e 22 622
e 22 623
e 22 653
e 22 733
e 22 743
e 22 759
e 22 761
e 22 779
e 22 781
e 22 817
e 22 826
e 22 829
e 22 832
e 22 853
e 22 874
e 22 889
e 22 942
e 22 950
e 22 976
e 22 981
e 22 983
e 23 275
e 23 298
e 23 305
e 23 312
e 23 314
e 23 328
e 23 329
e 23 331
e 23 358
e 23 385
e 23 408
e 23 444
e 23 453
e 23 454
e 23 455
e 23 485
e 23 487
e 23 490
e 23 491
e 23 532
e 23 553
e 23 554
e 23 657
e 23 672
e 23 685
e 23 710
e 23 749
e 23 778
e 23 787
e 23 797
e 23 817
e 23 874
e 23 878
e 23 963
e 23 967
e 23 984
e 23 988
e 24 266
e 24 273
e 24 284
e 24 314
e 24 319
e 24 322
e 24 339
e 24 351
e 24 353
e 24 361
e 24 364
e 24 414
e 24 426
e 24 431
e 24 433
e 24 497
e 24 515
e 24 519
e 24 534
e 24 561
e 24 573
e 24 595
e 24 610
e 24 661
e 24 662
e 24 666
e 24 673
e 24 676
e 24 684
e 24 691
e 24 697
e 24 711
e 24 724
e 24 748
e 24 781
e 24 791
e 24 797
e 24 815
e 24 830
e 24 878
e 24 953
e 24 970
e 24 991
e 25 257
e 25 272
e 25 302
e 25 307
e 25 312
e 25 337
e 25 359
e 25 375
e 25 382
e 25 390
e 25 418
e 25 439
e 25 442
e 25 444
e 25 502
e 25 504
e 25 513
e 25 547
e 25 587
e 25 608
e 25 637
e 25 653
e 25 724
e 25 797
e 25 823
e 25 834
e 25 845
e 25 895
e 25 902
e 25 913
e 25 934
e 25 958
e 25 961
e 25 984
e 25 985
e 25 999
e 26 256
e 26 284
e 26 311
e 26 354
e 26 465
e 26 503
e 26 528
e 26 531
e 26 573
e 26 585
e 26 601
e 26 620
e 26 629
e 26 638
e 26 662
e 26 663
e 26 699
e 26 743
e 26 759
e 26 781
e 26 805
e 26 822
e 26 835
e 26 853
e 26 915
e 26 924
e 26 929
e 26 941
e 26 982
e 27 268
e 27 274
e 27 314
e 27 354
e 27 375
e 27 393
e 27 399
e 27 409
e 27 410
e 27 431
e 27 473
e 27 520
e 27 527
e 27 532
e 27 565
e 27 585
e 27 588
e 27 599
e 27 606
e 27 612
e 27 632
e 27 659
e 27 686
e 27 697
e 27 706
e 27 723
e 27 738
e 27 746
e 27 747
e 27 750
e 27 782
e 27 786
e 27 836
e 27 860
e 27 865
e 27 875
e 27 884
e 27 914
e 27 928
e 27 960
e 27 965
e 27 988
e 27 998
e 28 260
e 28 272
e 28 288
e 28 291
e 28 307
e 28 310
e 28 319
e 28 346
e 28 353
e 28 397
e 28 415
e 28 460
e 28 466
e 28 467
e 28 482
e 28 499
e 28 507
e 28 509
e 28 517
e 28 542
e 28 561
e 28 570
e 28 572
e 28 580
e 28 605
e 28 612
e 28 614
e 28 628
e 28 662
e 28 668
e 28 678
e 28 686
e 28 693
e 28 709
e 28 720
e 28 736
e 28 737
e 28 746
e 28 773
e 28 788
e 28 797
e 28 819
e 28 889
e 28 897
e 28 930
e 28 949
e 28 981
e 28 985
e 29 253
e 29 279
e 29 283
e 29 312
e 29 317
e 29 318
e 29 323
e 29 337
e 29 338
e 29 340
e 29 358
e 29 364
e 29 367
e 29 404
e 29 419
e 29 428
e 29 438
e 29 461
e 29 488
e 29 549
e 29 561
e 29 592
e 29 593
e 29 616
e 29 632
e 29 646
e 29 687
e 29 688
e 29 709
e 29 757
e 29 758
e 29 764
e 29 792
e 29 818
e 29 847
e 29 863
e 29 878
e 29 895
e 29 897
e 29 933
e 29 955
e 29 963
e 29 982
e 29 983
e 30 279
e 30 300
e 30 323
e 30 340
e 30 355
e 30 388
e 30 398
e 30 418
e 30 470
e 30 491
e 30 502
e 30 521
e 30 526
e 30 541
e 30 546
e 30 555
e 30 562
e 30 589
e 30 612
e 30 638
e 30 717
e 30 766
e 30 773
e 30 789
e 30 805
e 30 833
e 30 839
e 30 847
e 30 853
e 30 873
e 30 921
e 30 937
e 30 966
e 30 972
e 30 994
e 30 998
e 30 1000
e 31 285
e 31 304
e 31 311
e 31 314
e 31 320
e 31 323
e 31 331
e 31 373
e 31 384
e 31 392
e 31 462
e 31 472
e 31 473
e 31 499
e 31 515
e 31 516
e 31 557
e 31 574
e 31 595
e 31 604
e 31 631
e 31 651
e 31 656
e 31 677
e 31 698
e 31 710
e 31 712
e 31 713
e 31 720
e 31 765
e 31 773
e 31 776
e 31 780
e 31 783
e 31 789
e 31 816
e 31 825
e 31 866
e 31 887
e 31 898
e 31 966
e 31 982
e 31 989
e 31 991
e 32 255
e 32 278
e 32 296
e 32 303
e 32 311
e 32 345
e 32 366
e 32 425
e 32 428
e 32 457
e 32 461
e 32 503
e 32 510
e 32 559
e 32 562
e 32 564
e 32 565
e 32 569
e 32 596
e 32 662
e 32 663
e 32 721
e 32 725
e 32 730
e 32 738
e 32 816
e 32 853
e 32 864
e 32 875
e 32 902
e 32 906
e 32 912
e 32 923
e 32 967
e 32 988
e 33 283
e 33 308
e 33 312
e 33 315
e 33 345
e 33 373
e 33 396
e 33 398
e 33 439
e 33 471
e 33 482
e 33 621
e 33 670
e 33 675
e 33 696
e 33 707
e 33 766
e 33 769
e 33 841
e 33 857
e 33 880
e 33 940
e 33 944
e 33 961
e 33 986
e 34 259
e 34 262
e 34 267
e 34 280
e 34 295
e 34 296
e 34 301
e 34 308
e 34 314
e 34 319
e 34 366
e 34 370
e 34 378
e 34 445
e 34 456
e 34 458
e 34 460
e 34 476
e 34 478
e 34 487
e 34 497
e 34 537
e 34 550
e 34 574
e 34 577
e 34 582
e 34 606
e 34 617
e 34 621
e 34 654
e 34 662
e 34 702
e 34 735
e 34 784
e 34 830
e 34 852
e 34 872
e 34 908
e 34 909
e 34 920
e 34 921
e 34 945
e 35 271
e 35 298
e 35 325
e 35 350
e 35 401
e 35 452
e 35 464
e 35 472
e 35 494
e 35 505
e 35 506
e 35 539
e 35 546
e 35 591
e 35 607
e 35 613
e 35 629
e 35 638
e 35 675
e 35 700
e 35 703
e 35 706
e 35 710
e 35 726
e 35 734
e 35 759
e 35 771
e 35 800
e 35 802
e 35 819
e 35 830
e 35 834
e 35 861
e 35 887
e 35 889
e 35 903
e 35 937
e 35 957
e 35 963
e 36 255
e 36 266
e 36 272
e 36 273
e 36 275
e 36 286
e 36 313
e 36 323
e 36 328
e 36 354
e 36 362
e 36 366
e 36 388
e 36 408
e 36 413
e 36 476
e 36 489
e 36 494
e 36 498
e 36 530
e 36 538
e 36 551
e 36 562
e 36 577
e 36 616
e 36 654
e 36 683
e 36 726
e 36 783
e 36 786
e 36 800
e 36 811
e 36 813
e 36 820
e 36 848
e 36 876
e 36 936
e 36 969
e 36 997
e 37 257
e 37 265
e 37 269
e 37 293
e 37 305
e 37 314
e 37 397
e 37 428
e 37 429
e 37 473
e 37 496
e 37 511
e 37 527
e 37 571
e 37 572
e 37 623
e 37 630
e 37 693
e 37 704
e 37 711
e 37 753
e 37 771
e 37 806
e 37 819
e 37 844
e 37 852
e 37 866
e 37 871
e 37 896
e 37 900
e 37 944
e 38 253
e 38 262
e 38 272
e 38 282
e 38 288
e 38 289
e 38 299
e 38 304
e 38 355
e 38 358
e 38 361
e 38 375
e 38 393
e 38 447
e 38 491
e 38 518
e 38 538
e 38 567
e 38 582
e 38 608
e 38 611
e 38 632
e 38 642
e 38 674
e 38 692
e 38 761
e 38 780
e 38 793
e 38 827
e 38 852
e 38 854
e 38 885
e 38 887
e 38 898
e 38 903
e 38 904
e 38 933
e 38 935
e 38 953
e 38 970
e 38 980
e 38 996
e 39 254
e 39 271
e 39 272
e 39 311
e 39 346
e 39 379
e 39 420
e 39 421
e 39 438
e 39 482
e 39 502
e 39 503
e 39 508
e 39 520
e 39 524
e 39 546
e 39 558
e 39 573
e 39 590
e 39 638
e 39 681
e 39 729
e 39 781
e 39 808
e 39 832
e 39 858
e 39 861
e 39 899
e 39 931
e 39 933
e 39 948
e 39 981
e 39 987
e 39 991
e 39 999
e 40 256
e 40 327
e 40 338
e 40 360
e 40 373
e 40 384
e 40 394
e 40 419
e 40 422
e 40 451
e 40 462
e 40 473
e 40 486
e 40 487
e 40 489
e 40 502
e 40 515
e 40 531
e 40 547
e 40 600
e 40 608
e 40 653
e 40 667
e 40 697
e 40 700
e 40 747
e 40 768
e 40 780
e 40 817
e 40 829
e 40 833
e 40 835
e 40 841
e 40 843
e 40 851
e 40 856
e 40 869
e 40 918
e 40 936
e 40 939
e 40 943
e 40 959
e 40 960
e 40 969
e 40 978
e 40 983
e 40 999
e 41 273
e 41 320
e 41 322
e 41 337
e 41 357
e 41 365
e 41 398
e 41 399
e 41 400
e 41 401
e 41 418
e 41 421
e 41 423
e 41 431
e 41 436
e 41 459
e 41 469
e 41 501
e 41 518
e 41 522
e 41 539
e 41 571
e 41 572
e 41 594
e 41 597
e 41 599
e 41 618
e 41 622
e 41 663
e 41 678
e 41 679
e 41 714
e 41 750
e 41 763
e 41 764
e 41 784
e 41 800
e 41 861
e 41 877
e 41 932
e 41 970
e 41 982
e 41 989
e 42 252
e 42 254
e 42 266
e 42 286
e 42 368
e 42 378
e 42 380
e 42 382
e 42 420
e 42 424
e 42 496
e 42 550
e 42 567
e 42 574
e 42 586
e 42 588
e 42 592
e 42 606
e 42 675
e 42 691
e 42 709
e 42 727
e 42 750
e 42 764
e 42 860
e 42 902
e 42 949
e 42 951
e 42 969
e 43 271
e 43 272
e 43 273
e 43 274
e 43 283
e 43 301
e 43 308
e 43 353
e 43 376
e 43 419
e 43 458
e 43 464
e 43 468
e 43 469
e 43 472
e 43 488
e 43 533
e 43 541
e 43 559
e 43 560
e 43 594
e 43 638
e 43 645
e 43 647
e 43 651
e 43 659
e 43 660
e 43 759
e 43 779
e 43 786
e 43 829
e 43 830
e 43 836
e 43 877
e 43 902
e 43 911
e 43 933
e 43 942
e 43 947
e 43 977
e 43 982
e 44 274
e 44 284
e 44 290
e 44 318
e 44 387
e 44 410
e 44 412
e 44 418
e 44 476
e 44 515
e 44 520
e 44 525
e 44 561
e 44 596
e 44 605
e 44 607
e 44 608
e 44 614
e 44 628
e 44 629
e 44 660
e 44 695
e 44 697
e 44 701
e 44 712
e 44 741
e 44 774
e 44 808
e 44 812
e 44 823
e 44 824
e 44 866
e 44 917
e 44 928
e 44 937
e 44 954
e 44 955
e 44 961
e 44 976
e 44 986
e 44 998
e 45 261
e 45 294
e 45 322
e 45 387
e 45 414
e 45 419
e 45 421
e 45 433
e 45 456
e 45 517
e 45 546
e 45 574
e 45 578
e 45 630
e 45 634
e 45 679
e 45 695
e 45 709
e 45 775
e 45 798
e 45 819
e 45 842
e 45 870
e 45 886
e 45 928
e 45 957
e 45 970
e 45 977
e 45 978
e 45 989
e 45 1000
e 46 282
e 46 295
e 46 296
e 46 328
e 46 333
e 46 337
e 46 348
e 46 380
e 46 381
e 46 385
e 46 427
e 46 529
e 46 536
e 46 546
e 46 555
e 46 580
e 46 584
e 46 588
e 46 593
e 46 597
e 46 639
e 46 649
e 46 682
e 46 698
e 46 753
e 46 767
e 46 768
e 46 784
e 46 802
e 46 874
e 46 952
e 46 978
e 46 983
e 46 984
e 46 987
e 47 282
e 47 301
e 47 306
e 47 309
e 47 317
e 47 336
e 47 342
e 47 356
e 47 375
e 47 409
e 47 410
e 47 418
e 47 428
e 47 452
e 47 466
e 47 497
e 47 504
e 47 505
e 47 571
e 47 590
e 47 606
e 47 611
e 47 630
e 47 631
e 47 643
e 47 646
e 47 660
e 47 663
e 47 669
e 47 693
e 47 696
e 47 698
e 47 730
e 47 735
e 47 749
e 47 783
e 47 811
e 47 828
e 47 867
e 47 896
e 47 903
e 47 906
e 47 907
e 47 921
e 47 923
e 47 941
e 47 946
e 47 949
e 48 266
e 48 329
e 48 331
e 48 332
e 48 351
e 48 372
e 48 387
e 48 399
e 48 419
e 48 423
e 48 446
e 48 448
e 48 495
e 48 530
e 48 538
e 48 557
e 48 595
e 48 645
e 48 655
e 48 727
e 48 775
e 48 783
e 48 803
e 48 846
e 48 856
e 48 880
e 48 904
e 48 940
e 48 957
e 48 975
e 48 985
e 49 260
e 49 269
e 49 283
e 49 284
e 49 352
e 49 362
e 49 388
e 49 403
e 49 407
e 49 408
e 49 498
e 49 505
e 49 521
e 49 543
e 49 548
e 49 563
e 49 585
e 49 601
e 49 618
e 49 633
e 49 635
e 49 669
e 49 683
e 49 721
e 49 790
e 49 795
e 49 799
e 49 806
e 49 809
e 49 842
e 49 843
e 49 847
e 49 891
e 49 937
e 49 951
e 49 969
e 49 975
e 50 271
e 50 275
e 50 277
e 50 291
e 50 333
e 50 341
e 50 385
e 50 405
e 50 437
e 50 462
e 50 513
e 50 519
e 50 533
e 50 537
e 50 547
e 50 549
e 50 565
e 50 569
e 50 606
e 50 616
e 50 626
e 50 667
e 50 686
e 50 704
e 50 716
e 50 739
e 50 755
e 50 768
e 50 790
e 50 796
e 50 849
e 50 864
e 50 868
e 50 869
e 50 898
e 50 927
e 50 948
e 50 955
e 50 982
e 50 983
e 50 998
e 51 253
e 51 257
e 51 266
e 51 281
e 51 309
e 51 317
e 51 352
e 51 392
e 51 419
e 51 422
e 51 429
e 51 462
e 51 474
e 51 490
e 51 544
e 51 556
e 51 559
e 51 591
e 51 642
e 51 647
e 51 695
e 51 716
e 51 739
e 51 757
e 51 765
e 51 769
e 51 776
e 51 809
e 51 858
e 51 861
e 51 864
e 51 868
e 51 888
e 51 933
e 51 940
e 51 941
e 51 948
e 51 993
e 51 999
e 52 314
e 52 343
e 52 353
e 52 365
e 52 473
e 52 521
e 52 527
e 52 546
e 52 641
e 52 686
e 52 687
e 52 697
e 52 755
e 52 770
e 52 785
e 52 788
e 52 797
e 52 799
e 52 816
e 52 834
e 52 842
e 52 850
e 52 870
e 52 914
e 52 971
e 52 973
e 52 978
e 52 994
e 52 997
e 53 259
e 53 277
e 53 278
e 53 298
e 53 322
e 53 355
e 53 369
e 53 382
e 53 391
e 53 424
e 53 444
e 53 451
e 53 469
e 53 480
e 53 484
e 53 531
e 53 541
e 53 547
e 53 554
e 53 598
e 53 624
e 53 680
e 53 739
e 53 741
e 53 754
e 53 775
e 53 783
e 53 796
e 53 799
e 53 831
e 53 847
e 53 867
e 53 874
e 53 881
e 53 893
e 53 927
e 53 929
e 53 954
e 53 972
e 53 981
e 53 990
e 54 253
e 54 266
e 54 285
e 54 300
e 54 307
e 54 327
e 54 342
e 54 345
e 54 359
e 54 373
e 54 382
e 54 383
e 54 387
e 54 431
e 54 491
e 54 528
e 54 561
e 54 576
e 54 583
e 54 590
e 54 607
e 54 631
e 54 655
e 54 688
e 54 693
e 54 701
e 54 718
e 54 748
e 54 759
e 54 771
e 54 772
e 54 811
e 54 829
e 54 845
e 54 862
e 54 870
e 54 888
e 54 889
e 54 927
e 54 936
e 54 940
e 54 980
e 54 997
e 55 251
e 55 283
e 55 298
e 55 304
e 55 308
e 55 316
e 55 321
e 55 325
e 55 326
e 55 336
e 55 337
e 55 362
e 55 385
e 55 399
e 55 406
e 55 410
e 55 416
e 55 435
e 55 486
e 55 494
e 55 507
e 55 532
e 55 554
e 55 598
e 55 620
e 55 625
e 55 657
e 55 668
e 55 680
e 55 683
e 55 715
e 55 716
e 55 733
e 55 758
e 55 806
e 55 810
e 55 813
e 55 863
e 55 872
e 55 878
e 55 893
e 55 904
e 55 920
e 55 926
e 55 959
e 56 253
e 56 266
e 56 321
e 56 324
e 56 370
e 56 373
e 56 403
e 56 418
e 56 436
e 56 443
e 56 452
e 56 458
e 56 462
e 56 467
e 56 479
e 56 490
e 56 507
e 56 529
e 56 583
e 56 584
e 56 591
e 56 602
e 56 615
e 56 643
e 56 645
e 56 647
e 56 658
e 56 672
e 56 681
e 56 688
e 56 723
e 56 746
e 56 750
e 56 765
e 56 813
e 56 827
e 56 848
e 56 860
e 56 913
e 56 933
e 56 943
e 56 983
e 57 257
e 57 265
e 57 294
e 57 306
e 57 346
e 57 368
e 57 421
e 57 435
e 57 438
e 57 513
e 57 530
e 57 540
e 57 543
e 57 556
e 57 565
e 57 569
e 57 571
e 57 580
e 57 628
e 57 629
e 57 637
e 57 650
e 57 659
e 57 697
e 57 703
e 57 710
e 57 723
e 57 725
e 57 738
e 57 749
e 57 777
e 57 788
e 57 812
e 57 825
e 57 872
e 57 892
e 58 260
e 58 262
e 58 265
e 58 268
e 58 292
e 58 297
e 58 364
e 58 367
e 58 386
e 58 395
e 58 513
e 58 525
e 58 550
e 58 579
e 58 583
e 58 608
e 58 614
e 58 619
e 58 649
e 58 658
e 58 719
e 58 784
e 58 796
e 58 814
e 58 832
e 58 846
e 58 853
e 58 858
e 58 867
e 58 905
e 58 910
e 58 939
e 58 962
e 58 977
e 58 981
e 59 257
e 59 279
e 59 301
e 59 308
e 59 315
e 59 327
e 59 335
e 59 359
e 59 368
e 59 373
e 59 374
e 59 381
e 59 399
e 59 443
e 59 456
e 59 465
e 59 489
e 59 492
e 59 512
e 59 537
e 59 573
e 59 574
e 59 581
e 59 654
e 59 698
e 59 702
e 59 721
e 59 765
e 59 769
e 59 795
e 59 846
e 59 900
e 59 902
e 59 947
e 59 960
e 59 976
e 59 989
e 60 255
e 60 262
e 60 266
e 60 289
e 60 323
e 60 326
e 60 373
e 60 384
e 60 419
e 60 421
e 60 436
e 60 466
e 60 489
e 60 498
e 60 519
e 60 532
e 60 541
e 60 551
e 60 568
e 60 574
e 60 613
e 60 635
e 60 636
e 60 637
e 60 643
e 60 653
e 60 658
e 60 694
e 60 709
e 60 714
e 60 715
e 60 719
e 60 737
e 60 828
e 60 832
e 60 855
e 60 877
e 60 902
e 60 919
e 60 930
e 60 931
e 60 932
e 60 949
e 60 955
e 60 956
e 60 974
e 60 987
e 61 261
e 61 277
e 61 282
e 61 298
e 61 303
e 61 320
e 61 323
e 61 329
e 61 336
e 61 347
e 61 364
e 61 456
e 61 499
e 61 505
e 61 509
e 61 553
e 61 565
e 61 574
e 61 596
e 61 599
e 61 654
e 61 672
e 61 711
e 61 728
e 61 820
e 61 830
e 61 840
e 61 846
e 61 900
e 61 902
e 61 924
e 61 926
e 61 933
e 61 958
e 61 994
e 62 271
e 62 279
e 62 295
e 62 296
e 62 298
e 62 324
e 62 336
e 62 356
e 62 357
e 62 385
e 62 389
e 62 392
e 62 399
e 62 415
e 62 423
e 62 455
e 62 457
e 62 470
e 62 476
e 62 477
e 62 559
e 62 571
e 62 576
e 62 645
e 62 654
e 62 666
e 62 695
e 62 718
e 62 733
e 62 735
e 62 737
e 62 748
e 62 760
e 62 801
e 62 811
e 62 821
e 62 843
e 62 846
e 62 907
e 62 936
e 63 262
e 63 285
e 63 294
e 63 299
e 63 326
e 63 337
e 63 340
e 63 355
e 63 368
e 63 371
e 63 395
e 63 402
e 63 427
e 63 438
e 63 521
e 63 546
e 63 567
e 63 597
e 63 605
e 63 631
e 63 649
e 63 669
e 63 689
e 63 705
e 63 745
e 63 747
e 63 757
e 63 762
e 63 776
e 63 777
e 63 806
e 63 860
e 63 917
e 63 933
e 63 961
e 63 969
e 63 985
e 63 988
e 63 991
e 63 992
e 64 253
e 64 267
e 64 352
e 64 364
e 64 376
e 64 417
e 64 427
e 64 429
e 64 481
e 64 505
e 64 513
e 64 517
e 64 540
e 64 560
e 64 570
e 64 581
e 64 620
e 64 628
e 64 657
e 64 659
e 64 663
e 64 666
e 64 671
e 64 676
e 64 698
e 64 709
e 64 745
e 64 786
e 64 799
e 64 804
e 64 808
e 64 843
e 64 876
e 64 883
e 64 906
e 64 914
e 64 987
e 65 252
e 65 287
e 65 346
e 65 368
e 65 402
e 65 414
e 65 432
e 65 473
e 65 476
e 65 486
e 65 546
e 65 551
e 65 556
e 65 641
e 65 686
e 65 689
e 65 698
e 65 706
e 65 714
e 65 715
e 65 718
e 65 722
e 65 739
e 65 768
e 65 771
e 65 796
e 65 797
e 65 838
e 65 842
e 65 843
e 65 850
e 65 852
e 65 883
e 65 903
e 65 913
e 65 939
e 65 972
e 65 973
e 65 984
e 66 254
e 66 268
e 66 339
e 66 343
e 66 418
e 66 419
e 66 424
e 66 441
e 66 442
e 66 453
e 66 468
e 66 473
e 66 476
e 66 501
e 66 525
e 66 540
e 66 548
e 66 556
e 66 564
e 66 587
e 66 591
e 66 631
e 66 648
e 66 652
e 66 688
e 66 689
e 66 742
e 66 748
e 66 753
e 66 772
e 66 795
e 66 875
e 66 894
e 66 930
e 66 953
e 66 1000
e 67 267
e 67 332
e 67 340
e 67 352
e 67 364
e 67 419
e 67 438
e 67 446
e 67 459
e 67 472
e 67 489
e 67 518
e 67 526
e 67 538
e 67 547
e 67 556
e 67 557
e 67 575
e 67 617
e 67 634
e 67 647
e 67 661
e 67 674
e 67 676
e 67 686
e 67 692
e 67 699
e 67 710
e 67 735
e 67 739
e 67 743
e 67 791
e 67 793
e 67 806
e 67 823
e 67 827
e 67 837
e 67 872
e 67 889
e 67 892
e 67 910
e 67 918
e 67 935
e 67 943
e 67 964
e 67 982
e 67 987
e 67 994
e 67 999
e 68 257
e 68 286
e 68 323
e 68 339
e 68 349
e 68 414
e 68 434
e 68 444
e 68 447
e 68 476
e 68 491
e 68 492
e 68 505
e 68 521
e 68 536
e 68 538
e 68 542
e 68 547
e 68 592
e 68 634
e 68 647
e 68 652
e 68 678
e 68 681
e 68 688
e 68 691
e 68 709
e 68 713
e 68 774
e 68 813
e 68 828
e 68 856
e 68 863
e 68 915
e 68 919
e 68 943
e 68 961
e 68 998
e 69 280
e 69 291
e 69 293
e 69 318
e 69 339
e 69 347
e 69 352
e 69 361
e 69 362
e 69 394
e 69 416
e 69 448
e 69 456
e 69 490
e 69 491
e 69 495
e 69 499
e 69 504
e 69 509
e 69 562
e 69 575
e 69 591
e 69 601
e 69 609
e 69 616
e 69 620
e 69 626
e 69 646
e 69 712
e 69 730
e 69 749
e 69 778
e 69 789
e 69 808
e 69 840
e 69 867
e 69 878
e 69 891
e 69 918
e 69 955
e 69 983
e 69 986
e 70 304
e 70 317
e 70 338
e 70 343
e 70 386
e 70 403
e 70 422
e 70 504
e 70 532
e 70 561
e 70 573
e 70 574
e 70 594
e 70 634
e 70 707
e 70 738
e 70 814
e 70 815
e 70 837
e 70 858
e 70 884
e 70 900
e 70 906
e 70 914
e 70 928
e 70 932
e 70 956
e 70 985
e 71 278
e 71 292
e 71 293
e 71 318
e 71 322
e 71 329
e 71 357
e 71 377
e 71 386
e 71 430
e 71 439
e 71 444
e 71 446
e 71 453
e 71 455
e 71 474
e 71 508
e 71 509
e 71 514
e 71 520
e 71 559
e 71 560
e 71 571
e 71 581
e 71 609
e 71 639
e 71 644
e 71 647
e 71 661
e 71 671
e 71 736
e 71 753
e 71 779
e 71 859
e 71 865
e 71 875
e 71 890
e 71 905
e 71 928
e 71 952
e 72 280
e 72 310
e 72 315
e 72 327
e 72 357
e 72 362
e 72 378
e 72 416
e 72 445
e 72 456
e 72 457
e 72 471
e 72 474
e 72 493
e 72 500
e 72 522
e 72 537
e 72 550
e 72 580
e 72 591
e 72 592
e 72 604
e 72 631
e 72 636
e 72 648
e 72 668
e 72 738
e 72 752
e 72 781
e 72 805
e 72 807
e 72 881
e 72 918
e 72 962
e 72 965
e 73 262
e 73 283
e 73 371
e 73 429
e 73 438
e 73 442
e 73 458
e 73 500
e 73 503
e 73 563
e 73 579
e 73 588
e 73 592
e 73 616
e 73 658
e 73 681
e 73 686
e 73 709
e 73 716
e 73 718
e 73 751
e 73 753
e 73 766
e 73 780
e 73 796
e 73 807
e 73 820
e 73 968
e 73 971
e 73 997
e 74 257
e 74 312
e 74 314
e 74 431
e 74 440
e 74 467
e 74 481
e 74 482
e 74 510
e 74 519
e 74 568
e 74 607
e 74 664
e 74 681
e 74 700
e 74 719
e 74 728
e 74 729
e 74 733
e 74 753
e 74 768
e 74 801
e 74 802
e 74 805
e 74 840
e 74 844
e 74 876
e 74 908
e 74 911
e 74 929
e 74 930
e 74 938
e 74 969
e 75 287
e 75 314
e 75 315
e 75 347
e 75 349
e 75 350
e 75 353
e 75 392
e 75 404
e 75 453
e 75 497
e 75 515
e 75 557
e 75 577
e 75 618
e 75 651
e 75 655
e 75 691
e 75 692
e 75 701
e 75 712
e 75 739
e 75 771
e 75 786
e 75 789
e 75 809
e 75 815
e 75 875
e 75 887
e 75 898
e 75 931
e 75 943
e 75 946
e 76 251
e 76 290
e 76 334
e 76 336
e 76 402
e 76 409
e 76 417
e 76 440
e 76 442
e 76 446
e 76 448
e 76 467
e 76 472
e 76 478
e 76 511
e 76 529
e 76 552
e 76 561
e 76 586
e 76 592
e 76 632
e 76 635
e 76 636
e 76 643
e 76 667
e 76 705
e 76 724
e 76 743
e 76 745
e 76 747
e 76 755
e 76 762
e 76 766
e 76 781
e 76 783
e 76 820
e 76 859
e 76 868
e 76 876
e 76 912
e 76 927
e 76 934
e 76 954
e 76 955
e 76 984
e 76 994
e 77 258
e 77 261
e 77 275
e 77 281
e 77 286
e 77 315
e 77 329
e 77 389
e 77 390
e 77 396
e 77 414
e 77 415
e 77 422
e 77 428
e 77 439
e 77 447
e 77 537
e 77 561
e 77 578
e 77 590
e 77 598
e 77 619
e 77 629
e 77 660
e 77 704
e 77 736
e 77 777
e 77 800
e 77 812
e 77 825
e 77 827
e 77 831
e 77 854
e 77 856
e 77 862
e 77 871
e 77 888
e 77 898
e 77 916
e 77 946
e 77 962
e 77 986
e 77 989
e 78 260
e 78 276
e 78 293
e 78 300
e 78 328
e 78 346
e 78 369
e 78 372
e 78 375
e 78 388
e 78 427
e 78 468
e 78 475
e 78 509
e 78 522
e 78 527
e 78 564
e 78 581
e 78 647
e 78 697
e 78 699
e 78 730
e 78 734
e 78 741
e 78 770
e 78 780
e 78 783
e 78 793
e 78 800
e 78 812
e 78 825
e 78 843
e 78 858
e 78 873
e 78 883
e 78 923
e 78 949
e 78 955
e 78 977
e 78 982
e 78 983
e 78 999
e 79 252
e 79 277
e 79 288
e 79 306
e 79 320
e 79 346
e 79 361
e 79 375
e 79 376
e 79 388
e 79 390
e 79 397
e 79 401
e 79 487
e 79 499
e 79 519
e 79 559
e 79 584
e 79 638
e 79 651
e 79 711
e 79 720
e 79 728
e 79 730
e 79 732
e 79 759
e 79 763
e 79 821
e 79 852
e 79 911
e 79 955
e 79 970
e 80 313
e 80 319
e 80 321
e 80 328
e 80 332
e 80 337
e 80 339
e 80 348
e 80 357
e 80 359
e 80 379
e 80 391
e 80 401
e 80 415
e 80 416
e 80 434
e 80 495
e 80 498
e 80 547
e 80 574
e 80 581
e 80 601
e 80 612
e 80 628
e 80 691
e 80 724
e 80 735
e 80 761
e 80 771
e 80 784
e 80 790
e 80 796
e 80 811
e 80 816
e 80 843
e 80 964
e 80 968
e 80 982
e 81 259
e 81 274
e 81 280
e 81 355
e 81 366
e 81 381
e 81 395
e 81 414
e 81 467
e 81 501
e 81 514
e 81 534
e 81 537
e 81 546
e 81 550
e 81 594
e 81 641
e 81 644
e 81 667
e 81 681
e 81 684
e 81 694
e 81 708
e 81 718
e 81 724
e 81 746
e 81 752
e 81 816
e 81 818
e 81 844
e 81 846
e 81 847
e 81 857
e 81 880
e 81 888
e 81 901
e 81 910
e 81 978
e 81 997
e 82 280
e 82 299
e 82 357
e 82 375
e 82 413
e 82 430
e 82 441
e 82 448
e 82 467
e 82 486
e 82 491
e 82 496
e 82 527
e 82 547
e 82 554
e 82 646
e 82 659
e 82 660
e 82 668
e 82 688
e 82 691
e 82 693
e 82 719
e 82 720
e 82 739
e 82 762
e 82 804
e 82 857
e 82 862
e 82 871
e 82 873
e 82 876
e 82 908
e 82 935
e 82 947
e 82 957
e 82 965
e 82 993
e 83 258
e 83 264
e 83 273
e 83 278
e 83 326
e 83 332
e 83 349
e 83 357
e 83 363
e 83 372
e 83 392
e 83 407
e 83 412
e 83 422
e 83 425
e 83 427
e 83 471
e 83 480
e 83 514
e 83 530
e 83 532
e 83 552
e 83 567
e 83 585
e 83 609
e 83 618
e 83 635
e 83 675
e 83 691
e 83 731
e 83 740
e 83 743
e 83 756
e 83 759
e 83 783
e 83 785
e 83 787
e 83 810
e 83 821
e 83 874
e 83 883
e 83 889
e 83 899
e 83 900
e 83 942
e 83 970
e 83 987
e 83 1000
e 84 273
e 84 281
e 84 291
e 84 296
e 84 298
e 84 304
e 84 362
e 84 368
e 84 374
e 84 395
e 84 398
e 84 416
e 84 431
e 84 432
e 84 435
e 84 457
e 84 467
e 84 480
e 84 505
e 84 513
e 84 527
e 84 545
e 84 547
e 84 586
e 84 599
e 84 600
e 84 610
e 84 613
e 84 617
e 84 661
e 84 671
e 84 677
e 84 681
e 84 710
e 84 726
e 84 730
e 84 752
e 84 755
e 84 763
e 84 770
e 84 777
e 84 780
e 84 785
e 84 795
e 84 803
e 84 820
e 84 823
e 84 840
e 84 868
e 84 887
e 84 892
e 84 905
e 84 912
e 84 917
e 84 920
e 84 946
e 84 947
e 85 263
e 85 270
e 85 290
e 85 317
e 85 349
e 85 425
e 85 426
e 85 485
e 85 502
e 85 509
e 85 547
e 85 570
e 85 572
e 85 574
e 85 655
e 85 663
e 85 684
e 85 798
e 85 809
e 85 832
e 85 837
e 85 844
e 85 849
e 85 854
e 85 868
e 85 925
e 85 935
e 85 951
e 85 954
e 85 980
e 86 275
e 86 280
e 86 324
e 86 327
e 86 364
e 86 369
e 86 410
e 86 422
e 86 434
e 86 466
e 86 503
e 86 506
e 86 513
e 86 527
e 86 533
e 86 543
e 86 565
e 86 578
e 86 594
e 86 595
e 86 602
e 86 614
e 86 625
e 86 642
e 86 646
e 86 656
e 86 665
e 86 684
e 86 702
e 86 705
e 86 741
e 86 749
e 86 755
e 86 763
e 86 785
e 86 788
e 86 821
e 86 827
e 86 843
e 86 844
e 86 862
e 86 879
e 86 889
e 86 925
e 86 935
e 86 948
e 86 950
e 87 252
e 87 271
e 87 273
e 87 297
e 87 310
e 87 331
e 87 356
e 87 375
e 87 495
e 87 588
e 87 608
e 87 671
e 87 682
e 87 716
e 87 717
e 87 725
e 87 728
e 87 758
e 87 765
e 87 785
e 87 834
e 87 843
e 87 848
e 87 857
e 87 872
e 87 874
e 87 896
e 87 908
e 87 916
e 87 924
e 87 963
e 88 264
e 88 283
e 88 303
e 88 333
e 88 358
e 88 393
e 88 402
e 88 430
e 88 441
e 88 453
e 88 455
e 88 467
e 88 489
e 88 511
e 88 516
e 88 541
e 88 544
e 88 550
e 88 554
e 88 622
e 88 628
e 88 635
e 88 670
e 88 672
e 88 688
e 88 715
e 88 726
e 88 743
e 88 749
e 88 753
e 88 762
e 88 792
e 88 826
e 88 835
e 88 837
e 88 869
e 88 870
e 88 903
e 88 920
e 88 924
e 88 948
e 88 966
e 88 988
e 88 997
e 89 257
e 89 268
e 89 288
e 89 302
e 89 324
e 89 411
e 89 413
e 89 416
e 89 465
e 89 483
e 89 532
e 89 567
e 89 612
e 89 647
e 89 651
e 89 665
e 89 666
e 89 673
e 89 760
e 89 774
e 89 803
e 89 820
e 89 821
e 89 827
e 89 838
e 89 845
e 89 863
e 89 884
e 89 902
e 89 950
e 89 961
e 89 970
e 89 971
e 89 975
e 89 976
e 89 980
e 89 985
e 89 995
e 89 998
e 90 289
e 90 297
e 90 345
e 90 348
e 90 384
e 90 408
e 90 434
e 90 439
e 90 472
e 90 486
e 90 491
e 90 494
e 90 535
e 90 602
e 90 647
e 90 685
e 90 718
e 90 723
e 90 736
e 90 759
e 90 789
e 90 813
e 90 816
e 90 828
e 90 836
e 90 838
e 90 840
e 90 849
e 90 868
e 90 893
e 90 900
e 90 901
e 90 963
e 90 969
e 90 985
e 90 988
e 91 265
e 91 277
e 91 279
e 91 302
e 91 316
e 91 366
e 91 429
e 91 449
e 91 450
e 91 461
e 91 482
e 91 508
e 91 529
e 91 535
e 91 548
e 91 557
e 91 624
e 91 633
e 91 653
e 91 679
e 91 686
e 91 720
e 91 740
e 91 770
e 91 773
e 91 775
e 91 788
e 91 801
e 91 805
e 91 811
e 91 813
e 91 815
e 91 826
e 91 832
e 91 834
e 91 864
e 91 912
e 91 931
e 91 939
e 91 945
e 91 959
e 91 961
e 92 262
e 92 282
e 92 314
e 92 324
e 92 338
e 92 350
e 92 362
e 92 363
e 92 377
e 92 381
e 92 404
e 92 405
e 92 433
e 92 435
e 92 436
e 92 482
e 92 492
e 92 504
e 92 519
e 92 547
e 92 559
e 92 560
e 92 589
e 92 638
e 92 646
e 92 663
e 92 666
e 92 673
e 92 697
e 92 707
e 92 734
e 92 782
e 92 821
e 92 869
e 92 880
e 92 881
e 92 885
e 92 888
e 92 890
e 92 923
e 92 951
e 92 993
e 92 995
e 92 999
e 93 278
e 93 299
e 93 307
e 93 358
e 93 370
e 93 387
e 93 388
e 93 411
e 93 441
e 93 452
e 93 454
e 93 471
e 93 503
e 93 506
e 93 514
e 93 564
e 93 600
e 93 637
e 93 638
e 93 644
e 93 645
e 93 678
e 93 727
e 93 770
e 93 807
e 93 819
e 93 842
e 93 847
e 93 852
e 93 856
e 93 863
e 93 883
e 93 888
e 93 934
e 93 936
e 93 991
e 94 261
e 94 307
e 94 330
e 94 334
e 94 337
e 94 367
e 94 373
e 94 380
e 94 389
e 94 432
e 94 451
e 94 466
e 94 495
e 94 531
e 94 541
e 94 548
e 94 564
e 94 567
e 94 582
e 94 584
e 94 630
e 94 650
e 94 656
e 94 739
e 94 749
e 94 776
e 94 780
e 94 781
e 94 798
e 94 808
e 94 814
e 94 839
e 94 863
e 94 879
e 94 891
e 94 892
e 94 893
e 94 908
e 94 942
e 94 964
e 94 969
e 95 258
e 95 262
e 95 277
e 95 315
e 95 347
e 95 348
e 95 355
e 95 371
e 95 376
e 95 409
e 95 455
e 95 539
e 95 553
e 95 555
e 95 608
e 95 611
e 95 640
e 95 652
e 95 695
e 95 727
e 95 746
e 95 756
e 95 774
e 95 827
e 95 833
e 95 847
e 95 882
e 95 920
e 95 937
e 95 947
e 95 960
e 95 964
e 95 967
e 96 266
e 96 281
e 96 287
e 96 318
e 96 393
e 96 408
e 96 436
e 96 465
e 96 471
e 96 503
e 96 517
e 96 550
e 96 601
e 96 604
e 96 637
e 96 668
e 96 675
e 96 678
e 96 682
e 96 722
e 96 752
e 96 758
e 96 783
e 96 790
e 96 800
e 96 802
e 96 817
e 96 818
e 96 854
e 96 865
e 96 871
e 96 885
e 96 888
e 96 916
e 96 936
e 96 937
e 96 950
e 96 955
e 96 956
e 96 957
e 97 281
e 97 297
e 97 310
e 97 325
e 97 336
e 97 343
e 97 345
e 97 388
e 97 413
e 97 453
e 97 470
e 97 486
e 97 491
e 97 503
e 97 504
e 97 509
e 97 542
e 97 546
e 97 550
e 97 556
e 97 559
e 97 571
e 97 576
e 97 590
e 97 615
e 97 617
e 97 643
e 97 679
e 97 715
e 97 766
e 97 777
e 97 787
e 97 789
e 97 795
e 97 799
e 97 830
e 97 927
e 97 928
e 97 940
e 97 965
e 97 978
e 98 251
e 98 309
e 98 346
e 98 361
e 98 378
e 98 392
e 98 402
e 98 403
e 98 455
e 98 457
e 98 461
e 98 491
e 98 494
e 98 496
e 98 528
e 98 540
e 98 543
e 98 546
e 98 551
e 98 553
e 98 556
e 98 569
e 98 612
e 98 654
e 98 672
e 98 692
e 98 713
e 98 731
e 98 789
e 98 796
e 98 837
e 98 850
e 98 857
e 98 990
e 99 256
e 99 283
e 99 295
e 99 371
e 99 407
e 99 471
e 99 488
e 99 528
e 99 537
e 99 549
e 99 578
e 99 600
e 99 614
e 99 649
e 99 653
e 99 662
e 99 666
e 99 684
e 99 690
e 99 747
e 99 768
e 99 769
e 99 826
e 99 844
e 99 871
e 99 882
e 99 914
e 99 916
e 99 917
e 99 947
e 99 968
e 99 974
e 99 1000
e 100 277
e 100 294
e 100 298
e 100 330
e 100 358
e 100 363
e 100 381
e 100 404
e 100 407
e 100 441
e 100 460
e 100 498
e 100 528
e 100 541
e 100 582
e 100 595
e 100 612
e 100 631
e 100 643
e 100 647
e 100 716
e 100 758
e 100 774
e 100 791
e 100 806
e 100 825
e 100 827
e 100 832
e 100 855
e 100 867
e 100 868
e 100 890
e 100 918
e 100 919
e 100 931
e 100 959
e 100 963
e 100 967
e 100 992
e 101 256
e 101 296
e 101 321
e 101 344
e 101 373
e 101 446
e 101 540
e 101 588
e 101 596
e 101 640
e 101 644
e 101 665
e 101 688
e 101 689
e 101 699
e 101 709
e 101 712
e 101 733
e 101 744
e 101 756
e 101 773
e 101 802
e 101 822
e 101 841
e 101 842
e 101 858
e 101 922
e 101 945
e 101 965
e 101 974
e 101 985
e 101 992
e 101 994
e 102 262
e 102 273
e 102 282
e 102 285
e 102 325
e 102 361
e 102 374
e 102 377
e 102 390
e 102 407
e 102 428
e 102 438
e 102 442
e 102 451
e 102 482
e 102 551
e 102 579
e 102 605
e 102 625
e 102 627
e 102 640
e 102 646
e 102 670
e 102 671
e 102 686
e 102 687
e 102 693
e 102 701
e 102 705
e 102 711
e 102 829
e 102 851
e 102 888
e 102 890
e 102 896
e 102 904
e 102 906
e 102 925
e 102 952
e 102 961
e 103 251
e 103 284
e 103 303
e 103 315
e 103 331
e 103 332
e 103 359
e 103 370
e 103 372
e 103 481
e 103 505
e 103 543
e 103 547
e 103 557
e 103 565
e 103 593
e 103 602
e 103 698
e 103 737
e 103 739
e 103 751
e 103 772
e 103 787
e 103 814
e 103 829
e 103 837
e 103 844
e 103 853
e 103 877
e 103 886
e 103 901
e 103 920
e 103 931
e 103 942
e 103 980
e 103 985
e 104 262
e 104 264
e 104 274
e 104 281
e 104 288
e 104 303
e 104 304
e 104 332
e 104 347
e 104 373
e 104 390
e 104 396
e 104 437
e 104 452
e 104 465
e 104 471
e 104 483
e 104 500
e 104 503
e 104 533
e 104 570
e 104 592
e 104 612
e 104 658
e 104 691
e 104 698
e 104 706
e 104 721
e 104 765
e 104 770
e 104 775
e 104 779
e 104 801
e 104 807
e 104 865
e 104 885
e 104 926
e 104 940
e 104 975
e 104 980
e 104 986
e 105 260
e 105 261
e 105 291
e 105 310
e 105 353
e 105 377
e 105 392
e 105 395
e 105 396
e 105 481
e 105 486
e 105 526
e 105 541
e 105 574
e 105 591
e 105 654
e 105 673
e 105 689
e 105 695
e 105 709
e 105 717
e 105 736
e 105 757
e 105 820
e 105 853
e 105 906
e 105 950
e 105 955
e 105 982
e 105 993
e 106 308
e 106 309
e 106 323
e 106 347
e 106 373
e 106 420
e 106 458
e 106 537
e 106 559
e 106 576
e 106 595
e 106 617
e 106 648
e 106 653
e 106 655
e 106 675
e 106 691
e 106 761
e 106 763
e 106 815
e 106 825
e 106 832
e 106 928
e 106 938
e 106 966
e 106 972
e 106 991
e 107 272
e 107 299
e 107 323
e 107 342
e 107 356
e 107 357
e 107 361
e 107 375
e 107 394
e 107 438
e 107 521
e 107 529
e 107 573
e 107 597
e 107 602
e 107 606
e 107 612
e 107 639
e 107 668
e 107 693
e 107 717
e 107 766
e 107 789
e 107 791
e 107 794
e 107 830
e 107 833
e 107 849
e 107 882
e 107 917
e 107 929
e 107 932
e 107 942
e 107 967
e 108 347
e 108 350
e 108 371
e 108 415
e 108 470
e 108 478
e 108 493
e 108 527
e 108 547
e 108 548
e 108 553
e 108 588
e 108 604
e 108 635
e 108 652
e 108 684
e 108 704
e 108 731
e 108 735
e 108 761
e 108 763
e 108 782
e 108 783
e 108 825
e 108 844
e 108 856
e 108 858
e 108 878
e 108 902
e 108 935
e 108 967
e 108 968
e 108 992
e 108 993
e 109 280
e 109 295
e 109 300
e 109 307
e 109 320
e 109 376
e 109 382
e 109 388
e 109 429
e 109 445
e 109 497
e 109 538
e 109 539
e 109 542
e 109 543
e 109 552
e 109 564
e 109 588
e 109 589
e 109 594
e 109 607
e 109 608
e 109 627
e 109 633
e 109 638
e 109 647
e 109 655
e 109 675
e 109 689
e 109 693
e 109 720
e 109 743
e 109 748
e 109 785
e 109 813
e 109 824
e 109 828
e 109 833
e 109 850
e 109 871
e 109 929
e 109 981
e 109 985
e 110 278
e 110 298
e 110 305
e 110 341
e 110 353
e 110 367
e 110 399
e 110 412
e 110 428
e 110 484
e 110 486
e 110 494
e 110 497
e 110 544
e 110 555
e 110 564
e 110 574
e 110 577
e 110 652
e 110 654
e 110 661
e 110 693
e 110 708
e 110 766
e 110 769
e 110 772
e 110 791
e 110 800
e 110 806
e 110 814
e 110 828
e 110 836
e 110 860
e 110 894
e 110 914
e 110 923
e 110 979
e 110 985
e 111 259
e 111 283
e 111 288
e 111 312
e 111 327
e 111 332
e 111 389
e 111 407
e 111 408
e 111 420
e 111 426
e 111 445
e 111 447
e 111 457
e 111 528
e 111 552
e 111 575
e 111 582
e 111 602
e 111 615
e 111 643
e 111 658
e 111 669
e 111 696
e 111 721
e 111 743
e 111 750
e 111 752
e 111 801
e 111 812
e 111 826
e 111 842
e 111 845
e 111 869
e 111 875
e 111 881
e 111 900
e 111 988
e 112 276
e 112 338
e 112 343
e 112 345
e 112 348
e 112 366
e 112 373
e 112 381
e 112 385
e 112 395
e 112 414
e 112 425
e 112 428
e 112 471
e 112 472
e 112 494
e 112 501
e 112 507
e 112 519
e 112 547
e 112 562
e 112 570
e 112 572
e 112 582
e 112 583
e 112 609
e 112 634
e 112 637
e 112 657
e 112 672
e 112 682
e 112 692
e 112 718
e 112 729
e 112 734
e 112 767
e 112 792
e 112 796
e 112 822
e 112 827
e 112 884
e 112 919
e 112 929
e 112 934
e 112 957
e 112 995
e 113 260
e 113 279
e 113 318
e 113 320
e 113 321
e 113 325
e 113 337
e 113 352
e 113 353
e 113 366
e 113 393
e 113 420
e 113 423
e 113 425
e 113 462
e 113 473
e 113 474
e 113 514
e 113 523
e 113 625
e 113 636
e 113 650
e 113 655
e 113 684
e 113 715
e 113 745
e 113 747
e 113 765
e 113 844
e 113 849
e 113 854
e 113 870
e 113 871
e 113 900
e 113 944
e 113 956
e 113 967
e 113 968
e 113 994
e 114 273
e 114 300
e 114 363
e 114 444
e 114 531
e 114 539
e 114 545
e 114 558
e 114 576
e 114 578
e 114 607
e 114 677
e 114 685
e 114 731
e 114 745
e 114 747
e 114 748
e 114 752
e 114 760
e 114 812
e 114 818
e 114 849
e 114 852
e 114 854
e 114 877
e 114 888
e 114 979
e 114 982
e 114 986
e 114 991
e 114 992
e 115 252
e 115 272
e 115 290
e 115 304
e 115 321
e 115 323
e 115 330
e 115 362
e 115 373
e 115 380
e 115 381
e 115 388
e 115 395
e 115 396
e 115 405
e 115 423
e 115 428
e 115 434
e 115 443
e 115 447
e 115 450
e 115 463
e 115 486
e 115 505
e 115 522
e 115 555
e 115 558
e 115 563
e 115 564
e 115 603
e 115 606
e 115 609
e 115 612
e 115 616
e 115 621
e 115 631
e 115 636
e 115 666
e 115 681
e 115 683
e 115 711
e 115 720
e 115 732
e 115 741
e 115 749
e 115 827
e 115 842
e 115 876
e 115 879
e 115 884
e 115 888
e 115 921
e 115 923
e 115 945
e 116 252
e 116 283
e 116 284
e 116 307
e 116 374
e 116 379
e 116 402
e 116 408
e 116 414
e 116 451
e 116 464
e 116 489
e 116 500
e 116 548
e 116 568
e 116 583
e 116 605
e 116 641
e 116 649
e 116 659
e 116 664
e 116 696
e 116 697
e 116 742
e 116 798
e 116 810
e 116 818
e 116 823
e 116 836
e 116 845
e 116 898
e 116 984
e 116 996
e 117 259
e 117 263
e 117 267
e 117 328
e 117 338
e 117 350
e 117 366
e 117 422
e 117 423
e 117 443
e 117 466
e 117 483
e 117 525
e 117 531
e 117 579
e 117 590
e 117 596
e 117 641
e 117 662
e 117 683
e 117 684
e 117 691
e 117 702
e 117 708
e 117 761
e 117 776
e 117 825
e 117 829
e 117 837
e 117 847
e 117 851
e 117 873
e 117 893
e 117 931
e 117 937
e 117 942
e 117 954
e 117 994
e 118 274
e 118 286
e 118 294
e 118 319
e 118 322
e 118 341
e 118 348
e 118 371
e 118 381
e 118 387
e 118 446
e 118 458
e 118 588
e 118 594
e 118 625
e 118 630
e 118 636
e 118 676
e 118 702
e 118 709
e 118 763
e 118 775
e 118 805
e 118 833
e 118 859
e 118 860
e 118 861
e 118 868
e 118 896
e 118 934
e 118 967
e 118 994
e 119 253
e 119 282
e 119 293
e 119 321
e 119 327
e 119 340
e 119 395
e 119 421
e 119 434
e 119 465
e 119 479
e 119 486
e 119 493
e 119 532
e 119 553
e 119 559
e 119 575
e 119 613
e 119 614
e 119 619
e 119 688
e 119 725
e 119 760
e 119 814
e 119 830
e 119 841
e 119 871
e 119 876
e 119 882
e 119 900
e 119 929
e 119 965
e 119 990
e 119 996
e 119 997
e 120 256
e 120 320
e 120 391
e 120 409
e 120 412
e 120 424
e 120 437
e 120 479
e 120 489
e 120 498
e 120 521
e 120 533
e 120 569
e 120 601
e 120 645
e 120 648
e 120 736
e 120 739
e 120 760
e 120 795
e 120 799
e 120 809
e 120 823
e 120 832
e 120 846
e 120 859
e 120 868
e 120 869
e 120 895
e 120 896
e 120 897
e 120 903
e 120 917
e 120 930
e 120 992
e 121 262
e 121 301
e 121 308
e 121 322
e 121 353
e 121 373
e 121 386
e 121 418
e 121 440
e 121 480
e 121 482
e 121 540
e 121 599
e 121 649
e 121 651
e 121 686
e 121 687
e 121 697
e 121 699
e 121 791
e 121 827
e 121 852
e 121 872
e 121 889
e 121 899
e 121 906
e 121 930
e 121 946
e 121 959
e 121 967
e 121 979
e 121 989
e 122 272
e 122 304
e 122 328
e 122 334
e 122 353
e 122 357
e 122 370
e 122 386
e 122 399
e 122 424
e 122 431
e 122 462
e 122 465
e 122 474
e 122 500
e 122 508
e 122 544
e 122 560
e 122 573
e 122 575
e 122 576
e 122 582
e 122 584
e 122 610
e 122 619
e 122 621
e 122 635
e 122 637
e 122 662
e 122 730
e 122 757
e 122 770
e 122 778
e 122 840
e 122 883
e 122 917
e 122 923
e 122 945
e 123 260
e 123 277
e 123 283
e 123 305
e 123 316
e 123 320
e 123 343
e 123 377
e 123 410
e 123 416
e 123 427
e 123 436
e 123 477
e 123 478
e 123 482
e 123 483
e 123 509
e 123 519
e 123 547
e 123 577
e 123 614
e 123 623
e 123 651
e 123 652
e 123 667
e 123 675
e 123 706
e 123 722
e 123 733
e 123 738
e 123 839
e 123 863
e 123 873
e 123 893
e 123 914
e 123 916
e 123 925
e 123 940
e 123 956
e 123 982
e 123 993
e 124 259
e 124 261
e 124 270
e 124 335
e 124 338
e 124 348
e 124 361
e 124 378
e 124 414
e 124 427
e 124 433
e 124 434
e 124 460
e 124 468
e 124 542
e 124 574
e 124 577
e 124 620
e 124 628
e 124 662
e 124 667
e 124 700
e 124 706
e 124 718
e 124 743
e 124 769
e 124 789
e 124 804
e 124 862
e 124 884
e 124 894
e 124 979
e 125 266
e 125 290
e 125 310
e 125 425
e 125 443
e 125 468
e 125 479
e 125 494
e 125 523
e 125 527
e 125 551
e 125 584
e 125 644
e 125 650
e 125 651
e 125 676
e 125 680
e 125 722
e 125 752
e 125 768
e 125 783
e 125 795
e 125 832
e 125 843
e 125 846
e 125 859
e 125 880
e 125 893
e 125 938
e 125 992
e 125 996
e 126 253
e 126 297
e 126 302
e 126 306
e 126 343
e 126 353
e 126 354
e 126 391
e 126 409
e 126 418
e 126 457
e 126 492
e 126 528
e 126 551
e 126 560
e 126 592
e 126 597
e 126 617
e 126 640
e 126 643
e 126 670
e 126 672
e 126 676
e 126 677
e 126 694
e 126 709
e 126 712
e 126 770
e 126 774
e 126 798
e 126 799
e 126 804
e 126 851
e 126 854
e 126 866
e 126 885
e 126 892
e 126 909
e 126 912
e 126 958
e 126 959
e 127 289
e 127 400
e 127 414
e 127 415
e 127 454
e 127 492
e 127 498
e 127 528
e 127 531
e 127 534
e 127 549
e 127 554
e 127 580
e 127 591
e 127 602
e 127 640
e 127 661
e 127 689
e 127 699
e 127 704
e 127 709
e 127 757
e 127 777
e 127 816
e 127 824
e 127 865
e 127 874
e 127 875
e 127 891
e 127 902
e 127 916
e 127 932
e 127 935
e 127 966
e 127 979
e 127 983
e 128 260
e 128 261
e 128 346
e 128 364
e 128 400
e 128 414
e 128 421
e 128 426
e 128 473
e 128 491
e 128 501
e 128 519
e 128 534
e 128 543
e 128 556
e 128 559
e 128 569
e 128 570
e 128 601
e 128 625
e 128 626
e 128 628
e 128 649
e 128 652
e 128 663
e 128 693
e 128 700
e 128 738
e 128 747
e 128 748
e 128 752
e 128 755
e 128 784
e 128 801
e 128 851
e 128 886
e 128 906
e 128 913
e 128 932
e 128 944
e 128 970
e 128 978
e 128 982
e 128 990
e 129 255
e 129 263
e 129 276
e 129 277
e 129 294
e 129 316
e 129 317
e 129 346
e 129 358
e 129 387
e 129 423
e 129 450
e 129 462
e 129 467
e 129 484
e 129 487
e 129 489
e 129 495
e 129 511
e 129 557
e 129 568
e 129 583
e 129 593
e 129 600
e 129 634
e 129 650
e 129 674
e 129 701
e 129 715
e 129 739
e 129 786
e 129 788
e 129 801
e 129 824
e 129 828
e 129 838
e 129 841
e 129 887
e 129 902
e 129 913
e 129 927
e 129 946
e 129 975
e 130 276
e 130 282
e 130 285
e 130 290
e 130 319
e 130 343
e 130 392
e 130 394
e 130 405
e 130 409
e 130 420
e 130 424
e 130 442
e 130 475
e 130 500
e 130 503
e 130 573
e 130 594
e 130 617
e 130 632
e 130 657
e 130 663
e 130 675
e 130 676
e 130 707
e 130 709
e 130 730
e 130 742
e 130 783
e 130 792
e 130 801
e 130 819
e 130 822
e 130 858
e 130 910
e 130 933
e 130 946
e 130 955
e 130 956
e 130 959
e 130 962
e 130 976
e 130 978
e 130 998
e 131 300
e 131 336
e 131 340
e 131 368
e 131 372
e 131 383
e 131 396
e 131 400
e 131 418
e 131 455
e 131 458
e 131 465
e 131 510
e 131 519
e 131 600
e 131 602
e 131 608
e 131 611
e 131 648
e 131 681
e 131 699
e 131 765
e 131 767
e 131 768
e 131 791
e 131 804
e 131 818
e 131 821
e 131 833
e 131 836
e 131 857
e 131 880
e 131 912
e 131 914
e 131 928
e 131 946
e 132 268
e 132 271
e 132 282
e 132 296
e 132 327
e 132 331
e 132 364
e 132 387
e 132 445
e 132 453
e 132 475
e 132 491
e 132 512
e 132 523
e 132 528
e 132 530
e 132 557
e 132 581
e 132 610
e 132 627
e 132 636
e 132 647
e 132 648
e 132 666
e 132 670
e 132 680
e 132 685
e 132 724
e 132 744
e 132 751
e 132 798
e 132 820
e 132 828
e 132 840
e 132 869
e 132 882
e 132 886
e 132 901
e 132 910
e 132 936
e 132 945
e 132 957
e 132 987
e 132 996
e 133 295
e 133 298
e 133 299
e 133 334
e 133 359
e 133 398
e 133 405
e 133 413
e 133 454
e 133 467
e 133 481
e 133 522
e 133 523
e 133 538
e 133 548
e 133 571
e 133 623
e 133 638
e 133 640
e 133 667
e 133 712
e 133 714
e 133 728
e 133 743
e 133 767
e 133 776
e 133 781
e 133 793
e 133 800
e 133 853
e 133 862
e 133 875
e 133 915
e 133 932
e 133 951
e 133 985
e 133 986
e 133 999
e 134 298
e 134 311
e 134 319
e 134 342
e 134 349
e 134 351
e 134 359
e 134 370
e 134 374
e 134 390
e 134 399
e 134 405
e 134 407
e 134 423
e 134 447
e 134 449
e 134 470
e 134 472
e 134 474
e 134 491
e 134 494
e 134 513
e 134 520
e 134 547
e 134 550
e 134 551
e 134 554
e 134 609
e 134 624
e 134 638
e 134 689
e 134 707
e 134 720
e 134 738
e 134 763
e 134 785
e 134 798
e 134 825
e 134 850
e 134 866
e 134 880
e 134 895
e 134 909
e 134 924
e 134 926
e 134 953
e 134 956
e 134 957
e 134 970
e 134 993
e 134 1000
e 135 316
e 135 328
e 135 351
e 135 354
e 135 379
e 135 392
e 135 404
e 135 437
e 135 445
e 135 455
e 135 467
e 135 474
e 135 504
e 135 580
e 135 636
e 135 644
e 135 667
e 135 678
e 135 691
e 135 724
e 135 758
e 135 763
e 135 785
e 135 812
e 135 818
e 135 823
e 135 842
e 135 847
e 135 884
e 135 889
e 135 900
e 135 946
e 135 959
e 135 988
e 136 252
e 136 265
e 136 302
e 136 321
e 136 376
e 136 389
e 136 419
e 136 431
e 136 435
e 136 438
e 136 453
e 136 480
e 136 494
e 136 504
e 136 507
e 136 510
e 136 519
e 136 546
e 136 569
e 136 589
e 136 599
e 136 608
e 136 613
e 136 618
e 136 659
e 136 673
e 136 694
e 136 699
e 136 706
e 136 733
e 136 748
e 136 764
e 136 789
e 136 793
e 136 858
e 136 861
e 136 876
e 136 878
e 136 882
e 136 886
e 136 894
e 136 906
e 137 265
e 137 292
e 137 294
e 137 300
e 137 305
e 137 314
e 137 322
e 137 391
e 137 411
e 137 443
e 137 461
e 137 463
e 137 490
e 137 502
e 137 504
e 137 557
e 137 591
e 137 634
e 137 637
e 137 679
e 137 704
e 137 712
e 137 714
e 137 752
e 137 764
e 137 765
e 137 767
e 137 798
e 137 802
e 137 834
e 137 883
e 137 889
e 137 906
e 137 955
e 137 990
e 137 995
e 138 289
e 138 295
e 138 303
e 138 305
e 138 307
e 138 320
e 138 344
e 138 364
e 138 443
e 138 501
e 138 504
e 138 520
e 138 536
e 138 580
e 138 581
e 138 593
e 138 612
e 138 671
e 138 678
e 138 681
e 138 709
e 138 717
e 138 721
e 138 742
e 138 746
e 138 788
e 138 798
e 138 810
e 138 846
e 138 855
e 138 860
e 138 861
e 138 864
e 138 873
e 138 895
e 138 915
e 138 939
e 138 950
e 138 972
e 138 997
e 138 998
e 139 258
e 139 264
e 139 288
e 139 304
e 139 324
e 139 325
e 139 331
e 139 335
e 139 341
e 139 344
e 139 361
e 139 373
e 139 385
e 139 388
e 139 400
e 139 401
e 139 487
e 139 526
e 139 564
e 139 614
e 139 625
e 139 633
e 139 694
e 139 696
e 139 713
e 139 740
e 139 800
e 139 812
e 139 877
e 139 903
e 139 905
e 139 908
e 139 918
e 139 927
e 139 966
e 140 257
e 140 262
e 140 277
e 140 332
e 140 339
e 140 357
e 140 358
e 140 366
e 140 369
e 140 375
e 140 416
e 140 491
e 140 507
e 140 608
e 140 612
e 140 657
e 140 708
e 140 725
e 140 736
e 140 738
e 140 768
e 140 800
e 140 827
e 140 838
e 140 841
e 140 870
e 140 902
e 140 907
e 140 959
e 140 977
e 140 981
e 141 260
e 141 272
e 141 303
e 141 325
e 141 334
e 141 337
e 141 340
e 141 351
e 141 373
e 141 397
e 141 422
e 141 431
e 141 509
e 141 528
e 141 538
e 141 541
e 141 550
e 141 553
e 141 575
e 141 593
e 141 607
e 141 675
e 141 679
e 141 686
e 141 708
e 141 739
e 141 760
e 141 783
e 141 807
e 141 815
e 141 862
e 141 912
e 141 918
e 141 933
e 142 278
e 142 297
e 142 303
e 142 317
e 142 330
e 142 356
e 142 373
e 142 391
e 142 398
e 142 406
e 142 413
e 142 423
e 142 443
e 142 475
e 142 485
e 142 497
e 142 502
e 142 536
e 142 556
e 142 577
e 142 604
e 142 634
e 142 640
e 142 643
e 142 652
e 142 656
e 142 689
e 142 739
e 142 750
e 142 756
e 142 758
e 142 767
e 142 861
e 142 863
e 142 871
e 142 881
e 142 894
e 142 912
e 142 924
e 142 935
e 142 977
e 143 261
e 143 265
e 143 274
e 143 277
e 143 336
e 143 345
e 143 353
e 143 383
e 143 386
e 143 440
e 143 442
e 143 446
e 143 479
e 143 494
e 143 521
e 143 534
e 143 542
e 143 545
e 143 554
e 143 557
e 143 564
e 143 569
e 143 618
e 143 621
e 143 624
e 143 629
e 143 644
e 143 657
e 143 688
e 143 715
e 143 725
e 143 729
e 143 793
e 143 797
e 143 814
e 143 819
e 143 823
e 143 860
e 143 866
e 143 929
e 143 944
e 143 951
e 143 964
e 143 981
e 143 983
e 143 987
e 143 997
e 144 254
e 144 325
e 144 328
e 144 331
e 144 346
e 144 347
e 144 359
e 144 430
e 144 476
e 144 485
e 144 497
e 144 498
e 144 525
e 144 526
e 144 532
e 144 549
e 144 557
e 144 587
e 144 590
e 144 619
e 144 647
e 144 683
e 144 684
e 144 688
e 144 693
e 144 739
e 144 740
e 144 793
e 144 795
e 144 811
e 144 820
e 144 832
e 144 890
e 144 920
e 144 947
e 144 951
e 144 954
e 144 967
e 144 992
e 144 995
e 145 285
e 145 299
e 145 303
e 145 308
e 145 335
e 145 426
e 145 449
e 145 510
e 145 526
e 145 536
e 145 570
e 145 586
e 145 609
e 145 649
e 145 708
e 145 749
e 145 762
e 145 779
e 145 797
e 145 799
e 145 822
e 145 833
e 145 835
e 145 848
e 145 860
e 145 861
e 145 864
e 145 883
e 145 888
e 145 910
e 145 922
e 145 943
e 145 956
e 146 280
e 146 293
e 146 299
e 146 318
e 146 342
e 146 343
e 146 350
e 146 402
e 146 404
e 146 417
e 146 482
e 146 496
e 146 500
e 146 551
e 146 565
e 146 576
e 146 608
e 146 613
e 146 626
e 146 637
e 146 676
e 146 742
e 146 750
e 146 753
e 146 764
e 146 813
e 146 844
e 146 880
e 146 918
e 146 929
e 146 932
e 146 933
e 146 950
e 146 973
e 146 975
e 146 995
e 147 261
e 147 284
e 147 302
e 147 310
e 147 314
e 147 335
e 147 336
e 147 340
e 147 377
e 147 381
e 147 392
e 147 394
e 147 396
e 147 404
e 147 422
e 147 472
e 147 474
e 147 493
e 147 507
e 147 517
e 147 542
e 147 611
e 147 615
e 147 626
e 147 671
e 147 673
e 147 688
e 147 702
e 147 716
e 147 746
e 147 749
e 147 753
e 147 759
e 147 760
e 147 788
e 147 807
e 147 834
e 147 879
e 147 893
e 147 927
e 147 931
e 147 966
e 147 967
e 147 995
e 147 996
e 148 252
e 148 259
e 148 292
e 148 295
e 148 301
e 148 329
e 148 367
e 148 420
e 148 425
e 148 439
e 148 440
e 148 455
e 148 465
e 148 467
e 148 478
e 148 482
e 148 493
e 148 494
e 148 497
e 148 520
e 148 522
e 148 527
e 148 530
e 148 551
e 148 568
e 148 603
e 148 639
e 148 650
e 148 693
e 148 694
e 148 720
e 148 722
e 148 723
e 148 730
e 148 732
e 148 746
e 148 771
e 148 785
e 148 828
e 148 838
e 148 893
e 148 909
e 148 913
e 148 961
e 148 966
e 148 971
e 148 973
e 148 975
e 149 279
e 149 345
e 149 354
e 149 398
e 149 418
e 149 419
e 149 421
e 149 458
e 149 482
e 149 485
e 149 487
e 149 499
e 149 532
e 149 549
e 149 562
e 149 586
e 149 590
e 149 623
e 149 647
e 149 651
e 149 664
e 149 684
e 149 703
e 149 730
e 149 757
e 149 778
e 149 779
e 149 798
e 149 815
e 149 869
e 149 876
e 149 891
e 149 912
e 149 974
e 149 978
e 150 292
e 150 333
e 150 339
e 150 378
e 150 386
e 150 394
e 150 396
e 150 404
e 150 409
e 150 430
e 150 436
e 150 522
e 150 526
e 150 535
e 150 543
e 150 582
e 150 600
e 150 625
e 150 651
e 150 653
e 150 671
e 150 703
e 150 813
e 150 853
e 150 911
e 150 912
e 150 935
e 150 970
e 150 992
e 150 995
e 151 261
e 151 266
e 151 352
e 151 357
e 151 387
e 151 451
e 151 462
e 151 510
e 151 529
e 151 535
e 151 538
e 151 539
e 151 545
e 151 562
e 151 573
e 151 574
e 151 592
e 151 608
e 151 642
e 151 659
e 151 674
e 151 680
e 151 702
e 151 710
e 151 714
e 151 722
e 151 730
e 151 740
e 151 780
e 151 782
e 151 785
e 151 800
e 151 801
e 151 842
e 151 865
e 151 904
e 151 924
e 151 926
e 151 938
e 151 960
e 151 996
e 152 252
e 152 293
e 152 295
e 152 351
e 152 378
e 152 429
e 152 451
e 152 490
e 152 511
e 152 529
e 152 565
e 152 566
e 152 580
e 152 607
e 152 611
e 152 619
e 152 621
e 152 648
e 152 675
e 152 690
e 152 691
e 152 705
e 152 713
e 152 720
e 152 735
e 152 778
e 152 784
e 152 827
e 152 837
e 152 842
e 152 865
e 152 879
e 152 911
e 152 917
e 152 929
e 152 950
e 152 978
e 153 265
e 153 283
e 153 284
e 153 285
e 153 313
e 153 315
e 153 329
e 153 378
e 153 384
e 153 388
e 153 390
e 153 397
e 153 431
e 153 441
e 153 452
e 153 466
e 153 524
e 153 546
e 153 562
e 153 568
e 153 593
e 153 664
e 153 669
e 153 673
e 153 767
e 153 774
e 153 788
e 153 789
e 153 801
e 153 805
e 153 817
e 153 829
e 153 849
e 153 850
e 153 878
e 153 908
e 153 926
e 153 961
e 153 983
e 153 995
e 154 271
e 154 272
e 154 312
e 154 336
e 154 406
e 154 415
e 154 432
e 154 438
e 154 529
e 154 601
e 154 607
e 154 618
e 154 647
e 154 690
e 154 713
e 154 716
e 154 745
e 154 760
e 154 806
e 154 809
e 154 817
e 154 838
e 154 879
e 154 916
e 154 938
e 154 951
e 154 952
e 154 960
e 154 969
e 154 974
e 154 989
e 155 254
e 155 289
e 155 315
e 155 325
e 155 365
e 155 383
e 155 429
e 155 454
e 155 459
e 155 463
e 155 512
e 155 514
e 155 516
e 155 521
e 155 542
e 155 583
e 155 605
e 155 610
e 155 633
e 155 634
e 155 636
e 155 647
e 155 657
e 155 699
e 155 702
e 155 711
e 155 745
e 155 762
e 155 765
e 155 787
e 155 805
e 155 820
e 155 829
e 155 849
e 155 882
e 155 888
e 155 912
e 155 924
e 155 927
e 155 932
e 155 940
e 155 954
e 155 964
e 155 983
e 156 264
e 156 284
e 156 291
e 156 353
e 156 382
e 156 383
e 156 412
e 156 432
e 156 434
e 156 453
e 156 500
e 156 524
e 156 528
e 156 556
e 156 566
e 156 606
e 156 643
e 156 669
e 156 703
e 156 704
e 156 776
e 156 787
e 156 820
e 156 840
e 156 884
e 156 925
e 156 929
e 157 274
e 157 314
e 157 322
e 157 337
e 157 342
e 157 355
e 157 356
e 157 387
e 157 413
e 157 418
e 157 433
e 157 469
e 157 470
e 157 475
e 157 505
e 157 543
e 157 548
e 157 557
e 157 558
e 157 562
e 157 579
e 157 609
e 157 633
e 157 635
e 157 646
e 157 697
e 157 702
e 157 706
e 157 716
e 157 765
e 157 791
e 157 809
e 157 815
e 157 875
e 157 884
e 157 888
e 157 921
e 157 963
e 157 968
e 157 976
e 157 991
e 158 255
e 158 258
e 158 281
e 158 300
e 158 305
e 158 310
e 158 312
e 158 374
e 158 384
e 158 400
e 158 431
e 158 488
e 158 513
e 158 518
e 158 524
e 158 555
e 158 598
e 158 624
e 158 637
e 158 677
e 158 699
e 158 706
e 158 723
e 158 742
e 158 758
e 158 813
e 158 848
e 158 943
e 158 974
e 158 987
e 158 988
e 159 281
e 159 282
e 159 295
e 159 309
e 159 329
e 159 361
e 159 374
e 159 418
e 159 435
e 159 512
e 159 528
e 159 561
e 159 585
e 159 641
e 159 647
e 159 659
e 159 667
e 159 676
e 159 690
e 159 717
e 159 741
e 159 750
e 159 765
e 159 779
e 159 786
e 159 804
e 159 807
e 159 816
e 159 819
e 159 820
e 159 826
e 159 828
e 159 834
e 159 838
e 159 842
e 159 886
e 159 891
e 159 905
e 159 944
e 159 974
e 160 277
e 160 278
e 160 306
e 160 312
e 160 324
e 160 341
e 160 350
e 160 361
e 160 381
e 160 393
e 160 441
e 160 472
e 160 491
e 160 499
e 160 501
e 160 507
e 160 511
e 160 512
e 160 517
e 160 519
e 160 550
e 160 570
e 160 601
e 160 614
e 160 617
e 160 624
e 160 633
e 160 652
e 160 664
e 160 667
e 160 720
e 160 722
e 160 727
e 160 764
e 160 776
e 160 790
e 160 821
e 160 832
e 160 892
e 160 907
e 160 908
e 160 924
e 160 966
e 161 279
e 161 289
e 161 295
e 161 306
e 161 327
e 161 333
e 161 347
e 161 349
e 161 353
e 161 358
e 161 396
e 161 399
e 161 430
e 161 461
e 161 488
e 161 496
e 161 572
e 161 573
e 161 582
e 161 583
e 161 589
e 161 594
e 161 602
e 161 627
e 161 633
e 161 649
e 161 655
e 161 675
e 161 679
e 161 701
e 161 720
e 161 721
e 161 729
e 161 731
e 161 733
e 161 738
e 161 774
e 161 807
e 161 810
e 161 822
e 161 866
e 161 884
e 161 889
e 161 909
e 161 916
e 161 932
e 161 933
e 161 939
e 161 943
e 161 974
e 161 1000
e 162 262
e 162 282
e 162 284
e 162 289
e 162 299
e 162 322
e 162 337
e 162 341
e 162 347
e 162 358
e 162 386
e 162 419
e 162 444
e 162 484
e 162 524
e 162 574
e 162 632
e 162 642
e 162 646
e 162 672
e 162 675
e 162 677
e 162 713
e 162 798
e 162 805
e 162 861
e 162 925
e 162 933
e 162 944
e 163 307
e 163 308
e 163 336
e 163 398
e 163 455
e 163 456
e 163 507
e 163 509
e 163 525
e 163 537
e 163 568
e 163 577
e 163 591
e 163 593
e 163 601
e 163 613
e 163 615
e 163 644
e 163 652
e 163 672
e 163 701
e 163 702
e 163 729
e 163 738
e 163 748
e 163 760
e 163 766
e 163 783
e 163 832
e 163 844
e 163 870
e 163 883
e 163 916
e 163 921
e 163 997
e 164 257
e 164 292
e 164 319
e 164 344
e 164 373
e 164 409
e 164 425
e 164 444
e 164 445
e 164 450
e 164 453
e 164 470
e 164 471
e 164 473
e 164 498
e 164 499
e 164 517
e 164 518
e 164 547
e 164 577
e 164 606
e 164 635
e 164 637
e 164 640
e 164 650
e 164 698
e 164 732
e 164 736
e 164 751
e 164 758
e 164 771
e 164 789
e 164 790
e 164 813
e 164 836
e 164 862
e 164 868
e 164 869
e 164 880
e 164 898
e 164 907
e 164 909
e 164 921
e 164 957
e 164 967
e 164 975
e 165 283
e 165 310
e 165 311
e 165 319
e 165 342
e 165 361
e 165 375
e 165 384
e 165 392
e 165 395
e 165 401
e 165 412
e 165 413
e 165 416
e 165 440
e 165 488
e 165 489
e 165 568
e 165 572
e 165 575
e 165 597
e 165 612
e 165 627
e 165 634
e 165 653
e 165 660
e 165 667
e 165 673
e 165 695
e 165 709
e 165 735
e 165 749
e 165 757
e 165 767
e 165 770
e 165 811
e 165 817
e 165 820
e 165 823
e 165 845
e 165 850
e 165 863
e 165 868
e 165 870
e 165 889
e 165 901
e 165 909
e 165 948
e 165 965
e 165 985
e 165 987
e 165 988
e 165 990
e 165 996
e 166 253
e 166 254
e 166 267
e 166 270
e 166 290
e 166 300
e 166 303
e 166 335
e 166 336
e 166 361
e 166 367
e 166 384
e 166 429
e 166 447
e 166 464
e 166 466
e 166 486
e 166 492
e 166 507
e 166 519
e 166 527
e 166 539
e 166 547
e 166 564
e 166 588
e 166 589
e 166 592
e 166 625
e 166 630
e 166 638
e 166 643
e 166 644
e 166 679
e 166 683
e 166 685
e 166 697
e 166 761
e 166 782
e 166 795
e 166 833
e 166 873
e 166 890
e 166 891
e 166 893
e 166 903
e 166 915
e 166 926
e 166 935
e 166 951
e 166 961
e 167 255
e 167 260
e 167 273
e 167 276
e 167 288
e 167 290
e 167 292
e 167 293
e 167 299
e 167 305
e 167 331
e 167 382
e 167 394
e 167 441
e 167 454
e 167 480
e 167 489
e 167 514
e 167 532
e 167 537
e 167 543
e 167 559
e 167 581
e 167 597
e 167 610
e 167 625
e 167 629
e 167 676
e 167 703
e 167 723
e 167 758
e 167 802
e 167 833
e 167 847
e 167 886
e 167 919
e 167 925
e 167 949
e 167 964
e 168 253
e 168 273
e 168 334
e 168 356
e 168 359
e 168 362
e 168 367
e 168 384
e 168 393
e 168 409
e 168 410
e 168 445
e 168 447
e 168 460
e 168 486
e 168 509
e 168 529
e 168 555
e 168 561
e 168 587
e 168 590
e 168 591
e 168 594
e 168 605
e 168 628
e 168 712
e 168 757
e 168 795
e 168 803
e 168 826
e 168 842
e 168 855
e 168 865
e 168 872
e 168 900
e 168 954
e 168 966
e 168 974
e 168 981
e 169 321
e 169 339
e 169 350
e 169 366
e 169 396
e 169 411
e 169 436
e 169 469
e 169 499
e 169 536
e 169 553
e 169 554
e 169 624
e 169 737
e 169 750
e 169 753
e 169 805
e 169 810
e 169 863
e 169 880
e 169 889
e 169 910
e 169 979
e 169 983
e 169 984
e 169 992
e 169 997
e 170 257
e 170 267
e 170 270
e 170 276
e 170 302
e 170 312
e 170 331
e 170 346
e 170 351
e 170 362
e 170 402
e 170 413
e 170 465
e 170 536
e 170 620
e 170 639
e 170 645
e 170 670
e 170 780
e 170 796
e 170 861
e 170 862
e 170 875
e 170 904
e 170 954
e 171 271
e 171 296
e 171 343
e 171 344
e 171 376
e 171 399
e 171 414
e 171 419
e 171 467
e 171 471
e 171 481
e 171 486
e 171 496
e 171 539
e 171 572
e 171 598
e 171 628
e 171 654
e 171 679
e 171 681
e 171 692
e 171 723
e 171 726
e 171 732
e 171 769
e 171 798
e 171 813
e 171 828
e 171 841
e 171 912
e 171 956
e 171 981
e 171 984
e 172 253
e 172 271
e 172 276
e 172 279
e 172 286
e 172 288
e 172 328
e 172 359
e 172 364
e 172 366
e 172 384
e 172 399
e 172 458
e 172 459
e 172 461
e 172 497
e 172 502
e 172 530
e 172 537
e 172 543
e 172 551
e 172 552
e 172 561
e 172 628
e 172 650
e 172 685
e 172 733
e 172 751
e 172 756
e 172 768
e 172 778
e 172 837
e 172 842
e 172 864
e 172 920
e 172 921
e 172 950
e 172 981
e 172 984
e 172 988
e 173 254
e 173 311
e 173 354
e 173 369
e 173 387
e 173 391
e 173 420
e 173 427
e 173 437
e 173 453
e 173 463
e 173 496
e 173 514
e 173 547
e 173 561
e 173 591
e 173 593
e 173 602
e 173 606
e 173 626
e 173 637
e 173 646
e 173 685
e 173 727
e 173 729
e 173 753
e 173 793
e 173 824
e 173 840
e 173 877
e 173 921
e 173 964
e 173 993
e 174 256
e 174 294
e 174 297
e 174 313
e 174 321
e 174 328
e 174 329
e 174 357
e 174 407
e 174 420
e 174 422
e 174 446
e 174 463
e 174 528
e 174 570
e 174 587
e 174 595
e 174 601
e 174 608
e 174 683
e 174 702
e 174 719
e 174 725
e 174 790
e 174 836
e 174 838
e 174 844
e 174 847
e 174 855
e 174 864
e 174 866
e 174 906
e 174 915
e 174 920
e 174 925
e 174 928
e 174 930
e 174 933
e 174 936
e 174 951
e 174 965
e 175 256
e 175 280
e 175 333
e 175 358
e 175 372
e 175 377
e 175 436
e 175 437
e 175 457
e 175 485
e 175 608
e 175 652
e 175 657
e 175 689
e 175 702
e 175 703
e 175 705
e 175 708
e 175 747
e 175 771
e 175 781
e 175 798
e 175 809
e 175 826
e 175 836
e 175 838
e 175 855
e 175 873
e 175 890
e 175 899
e 175 904
e 175 912
e 176 254
e 176 266
e 176 276
e 176 288
e 176 289
e 176 394
e 176 452
e 176 479
e 176 492
e 176 504
e 176 583
e 176 599
e 176 606
e 176 629
e 176 656
e 176 659
e 176 692
e 176 707
e 176 772
e 176 781
e 176 791
e 176 810
e 176 904
e 176 914
e 176 920
e 176 968
e 176 980
e 177 257
e 177 276
e 177 336
e 177 364
e 177 377
e 177 381
e 177 388
e 177 418
e 177 425
e 177 428
e 177 464
e 177 465
e 177 471
e 177 472
e 177 488
e 177 536
e 177 541
e 177 565
e 177 586
e 177 600
e 177 654
e 177 678
e 177 700
e 177 744
e 177 789
e 177 794
e 177 823
e 177 826
e 177 833
e 177 842
e 177 844
e 177 871
e 177 872
e 177 886
e 177 887
e 177 896
e 177 914
e 177 918
e 177 951
e 177 958
e 178 265
e 178 284
e 178 289
e 178 303
e 178 335
e 178 338
e 178 346
e 178 352
e 178 353
e 178 381
e 178 405
e 178 420
e 178 438
e 178 451
e 178 456
e 178 510
e 178 526
e 178 527
e 178 546
e 178 548
e 178 703
e 178 721
e 178 722
e 178 723
e 178 730
e 178 738
e 178 780
e 178 785
e 178 803
e 178 817
e 178 833
e 178 839
e 178 848
e 178 851
e 178 860
e 178 861
e 178 884
e 178 887
e 178 904
e 178 913
e 178 918
e 178 925
e 178 930
e 178 946
e 178 959
e 178 998
e 179 285
e 179 286
e 179 293
e 179 320
e 179 326
e 179 336
e 179 355
e 179 429
e 179 439
e 179 479
e 179 496
e 179 515
e 179 523
e 179 537
e 179 555
e 179 573
e 179 583
e 179 593
e 179 628
e 179 633
e 179 639
e 179 666
e 179 672
e 179 697
e 179 699
e 179 704
e 179 728
e 179 744
e 179 754
e 179 757
e 179 803
e 179 820
e 179 851
e 179 873
e 179 896
e 179 923
e 179 944
e 179 983
e 180 251
e 180 254
e 180 265
e 180 299
e 180 335
e 180 348
e 180 350
e 180 378
e 180 383
e 180 392
e 180 403
e 180 435
e 180 466
e 180 476
e 180 480
e 180 494
e 180 497
e 180 506
e 180 520
e 180 522
e 180 554
e 180 578
e 180 581
e 180 594
e 180 610
e 180 616
e 180 629
e 180 637
e 180 653
e 180 657
e 180 676
e 180 685
e 180 695
e 180 719
e 180 735
e 180 740
e 180 752
e 180 764
e 180 771
e 180 790
e 180 794
e 180 810
e 180 840
e 180 873
e 180 874
e 180 900
e 180 929
e 180 938
e 180 944
e 180 947
e 180 971
e 180 993
e 181 254
e 181 262
e 181 266
e 181 300
e 181 324
e 181 331
e 181 353
e 181 359
e 181 364
e 181 391
e 181 412
e 181 429
e 181 469
e 181 478
e 181 483
e 181 495
e 181 508
e 181 527
e 181 534
e 181 537
e 181 541
e 181 550
e 181 558
e 181 560
e 181 577
e 181 598
e 181 622
e 181 653
e 181 667
e 181 690
e 181 713
e 181 730
e 181 736
e 181 756
e 181 766
e 181 771
e 181 773
e 181 805
e 181 876
e 181 911
e 181 927
e 181 956
e 181 983
e 181 987
e 182 266
e 182 277
e 182 303
e 182 305
e 182 359
e 182 386
e 182 401
e 182 437
e 182 462
e 182 531
e 182 537
e 182 547
e 182 571
e 182 576
e 182 611
e 182 630
e 182 688
e 182 710
e 182 755
e 182 766
e 182 767
e 182 769
e 182 774
e 182 827
e 182 848
e 182 866
e 182 867
e 182 870
e 182 871
e 182 872
e 182 877
e 182 880
e 182 885
e 182 903
e 182 906
e 182 947
e 182 957
e 182 963
e 182 964
e 182 974
e 182 979
e 182 989
e 183 256
e 183 269
e 183 343
e 183 396
e 183 417
e 183 424
e 183 466
e 183 472
e 183 490
e 183 505
e 183 539
e 183 541
e 183 559
e 183 564
e 183 568
e 183 582
e 183 590
e 183 619
e 183 648
e 183 653
e 183 665
e 183 667
e 183 680
e 183 686
e 183 692
e 183 724
e 183 774
e 183 843
e 183 848
e 183 858
e 183 874
e 183 882
e 183 884
e 183 926
e 183 933
e 183 958
e 183 990
e 184 258
e 184 259
e 184 281
e 184 282
e 184 292
e 184 293
e 184 314
e 184 385
e 184 387
e 184 406
e 184 424
e 184 445
e 184 446
e 184 455
e 184 502
e 184 559
e 184 563
e 184 595
e 184 672
e 184 711
e 184 729
e 184 744
e 184 756
e 184 772
e 184 775
e 184 779
e 184 780
e 184 811
e 184 834
e 184 839
e 184 849
e 184 889
e 184 944
e 184 988
e 185 275
e 185 304
e 185 362
e 185 399
e 185 449
e 185 450
e 185 502
e 185 526
e 185 561
e 185 579
e 185 594
e 185 625
e 185 634
e 185 639
e 185 667
e 185 696
e 185 716
e 185 734
e 185 751
e 185 789
e 185 811
e 185 818
e 185 825
e 185 826
e 185 848
e 185 894
e 185 911
e 185 914
e 185 950
e 185 983
e 185 984
e 185 986
e 186 269
e 186 286
e 186 309
e 186 336
e 186 337
e 186 385
e 186 393
e 186 396
e 186 408
e 186 444
e 186 467
e 186 485
e 186 508
e 186 539
e 186 561
e 186 566
e 186 595
e 186 599
e 186 610
e 186 682
e 186 683
e 186 687
e 186 701
e 186 755
e 186 766
e 186 770
e 186 808
e 186 814
e 186 880
e 186 896
e 186 911
e 186 936
e 186 957
e 186 995
e 187 256
e 187 290
e 187 314
e 187 318
e 187 326
e 187 334
e 187 381
e 187 480
e 187 494
e 187 508
e 187 531
e 187 585
e 187 589
e 187 628
e 187 630
e 187 635
e 187 647
e 187 704
e 187 713
e 187 781
e 187 834
e 187 844
e 187 863
e 187 937
e 187 949
e 187 964
e 187 966
e 187 971
e 187 993
e 188 284
e 188 301
e 188 322
e 188 329
e 188 449
e 188 452
e 188 494
e 188 510
e 188 532
e 188 533
e 188 581
e 188 614
e 188 620
e 188 629
e 188 648
e 188 662
e 188 707
e 188 722
e 188 748
e 188 809
e 188 822
e 188 839
e 188 871
e 188 876
e 188 913
e 188 914
e 188 916
e 188 920
e 188 932
e 188 935
e 188 937
e 188 948
e 188 967
e 188 968
e 188 994
e 189 253
e 189 257
e 189 335
e 189 351
e 189 354
e 189 364
e 189 379
e 189 444
e 189 448
e 189 463
e 189 466
e 189 482
e 189 505
e 189 519
e 189 572
e 189 584
e 189 593
e 189 600
e 189 657
e 189 665
e 189 670
e 189 672
e 189 673
e 189 684
e 189 697
e 189 736
e 189 749
e 189 760
e 189 820
e 189 868
e 189 870
e 189 894
e 189 897
e 189 899
e 189 918
e 189 925
e 189 928
e 189 945
e 189 982
e 190 265
e 190 270
e 190 296
e 190 330
e 190 365
e 190 374
e 190 376
e 190 385
e 190 386
e 190 420
e 190 438
e 190 456
e 190 457
e 190 464
e 190 496
e 190 526
e 190 532
e 190 551
e 190 611
e 190 668
e 190 669
e 190 696
e 190 704
e 190 709
e 190 712
e 190 728
e 190 737
e 190 815
e 190 816
e 190 830
e 190 847
e 190 857
e 190 885
e 190 893
e 190 967
e 190 969
e 190 972
e 191 285
e 191 297
e 191 298
e 191 309
e 191 312
e 191 336
e 191 358
e 191 374
e 191 380
e 191 401
e 191 408
e 191 438
e 191 496
e 191 515
e 191 543
e 191 544
e 191 545
e 191 553
e 191 583
e 191 592
e 191 597
e 191 601
e 191 612
e 191 618
e 191 637
e 191 642
e 191 676
e 191 679
e 191 701
e 191 704
e 191 710
e 191 748
e 191 752
e 191 761
e 191 764
e 191 771
e 191 774
e 191 791
e 191 811
e 191 830
e 191 833
e 191 912
e 191 946
e 191 955
e 191 986
e 192 254
e 192 279
e 192 298
e 192 306
e 192 341
e 192 347
e 192 368
e 192 409
e 192 447
e 192 469
e 192 531
e 192 538
e 192 544
e 192 567
e 192 611
e 192 670
e 192 676
e 192 703
e 192 706
e 192 726
e 192 730
e 192 856
e 192 878
e 192 884
e 192 885
e 192 921
e 192 935
e 192 950
e 192 984
e 192 988
e 192 990
e 192 997
e 193 261
e 193 268
e 193 298
e 193 353
e 193 378
e 193 383
e 193 394
e 193 395
e 193 406
e 193 467
e 193 473
e 193 492
e 193 501
e 193 529
e 193 550
e 193 562
e 193 571
e 193 578
e 193 620
e 193 623
e 193 648
e 193 668
e 193 670
e 193 693
e 193 701
e 193 766
e 193 803
e 193 818
e 193 842
e 193 885
e 193 896
e 193 922
e 193 953
e 193 974
e 194 254
e 194 282
e 194 283
e 194 384
e 194 410
e 194 435
e 194 437
e 194 439
e 194 477
e 194 491
e 194 493
e 194 519
e 194 521
e 194 535
e 194 541
e 194 561
e 194 568
e 194 605
e 194 642
e 194 658
e 194 663
e 194 678
e 194 711
e 194 718
e 194 749
e 194 855
e 194 873
e 194 901
e 194 921
e 194 941
e 194 951
e 194 952
e 194 956
e 194 965
e 194 980
e 194 983
e 194 988
e 194 992
e 194 999
e 195 255
e 195 262
e 195 285
e 195 286
e 195 311
e 195 323
e 195 330
e 195 337
e 195 350
e 195 383
e 195 398
e 195 422
e 195 429
e 195 461
e 195 529
e 195 530
e 195 533
e 195 564
e 195 572
e 195 580
e 195 596
e 195 668
e 195 674
e 195 682
e 195 683
e 195 706
e 195 754
e 195 793
e 195 819
e 195 820
e 195 827
e 195 862
e 195 888
e 195 947
e 195 949
e 195 966
e 195 992
e 195 1000
e 196 337
e 196 366
e 196 380
e 196 398
e 196 401
e 196 428
e 196 441
e 196 469
e 196 507
e 196 530
e 196 541
e 196 542
e 196 544
e 196 545
e 196 548
e 196 554
e 196 590
e 196 625
e 196 645
e 196 662
e 196 676
e 196 699
e 196 752
e 196 757
e 196 761
e 196 763
e 196 773
e 196 800
e 196 802
e 196 804
e 196 819
e 196 857
e 196 859
e 196 877
e 196 886
e 196 888
e 196 920
e 196 921
e 196 943
e 196 951
e 196 975
e 197 262
e 197 266
e 197 281
e 197 294
e 197 306
e 197 313
e 197 319
e 197 337
e 197 373
e 197 381
e 197 429
e 197 435
e 197 437
e 197 443
e 197 448
e 197 449
e 197 470
e 197 472
e 197 480
e 197 500
e 197 532
e 197 540
e 197 569
e 197 575
e 197 578
e 197 592
e 197 605
e 197 627
e 197 655
e 197 735
e 197 798
e 197 958
e 197 960
e 197 968
e 197 989
e 197 994
e 198 262
e 198 278
e 198 326
e 198 352
e 198 372
e 198 420
e 198 430
e 198 457
e 198 465
e 198 477
e 198 500
e 198 504
e 198 510
e 198 531
e 198 546
e 198 569
e 198 579
e 198 597
e 198 610
e 198 659
e 198 662
e 198 709
e 198 710
e 198 720
e 198 743
e 198 772
e 198 814
e 198 849
e 198 871
e 198 876
e 198 910
e 198 915
e 198 933
e 198 959
e 198 968
e 198 972
e 198 995
e 199 264
e 199 283
e 199 291
e 199 338
e 199 369
e 199 371
e 199 404
e 199 412
e 199 414
e 199 419
e 199 448
e 199 452
e 199 471
e 199 542
e 199 558
e 199 569
e 199 598
e 199 630
e 199 638
e 199 657
e 199 695
e 199 775
e 199 777
e 199 802
e 199 809
e 199 811
e 199 815
e 199 835
e 199 869
e 199 878
e 199 880
e 199 897
e 199 905
e 199 943
e 199 946
e 199 953
e 199 973
e 199 991
e 199 993
e 200 265
e 200 274
e 200 286
e 200 307
e 200 310
e 200 363
e 200 367
e 200 370
e 200 411
e 200 413
e 200 457
e 200 463
e 200 477
e 200 495
e 200 514
e 200 516
e 200 549
e 200 555
e 200 582
e 200 688
e 200 696
e 200 707
e 200 752
e 200 766
e 200 778
e 200 782
e 200 826
e 200 872
e 200 905
e 200 949
e 200 958
e 200 968
e 200 981
e 200 993
e 201 261
e 201 269
e 201 274
e 201 307
e 201 336
e 201 344
e 201 347
e 201 360
e 201 389
e 201 404
e 201 409
e 201 520
e 201 566
e 201 591
e 201 608
e 201 643
e 201 647
e 201 650
e 201 652
e 201 708
e 201 724
e 201 735
e 201 749
e 201 774
e 201 781
e 201 787
e 201 803
e 201 805
e 201 819
e 201 830
e 201 864
e 201 875
e 201 962
e 201 973
e 201 981
e 202 257
e 202 335
e 202 372
e 202 409
e 202 449
e 202 529
e 202 530
e 202 548
e 202 598
e 202 603
e 202 606
e 202 626
e 202 664
e 202 688
e 202 698
e 202 709
e 202 749
e 202 769
e 202 845
e 202 908
e 202 913
e 202 929
e 202 986
e 203 255
e 203 275
e 203 281
e 203 311
e 203 313
e 203 317
e 203 363
e 203 369
e 203 373
e 203 375
e 203 378
e 203 386
e 203 419
e 203 496
e 203 510
e 203 533
e 203 544
e 203 551
e 203 565
e 203 584
e 203 609
e 203 612
e 203 663
e 203 665
e 203 668
e 203 684
e 203 691
e 203 694
e 203 704
e 203 715
e 203 735
e 203 745
e 203 758
e 203 781
e 203 792
e 203 823
e 203 829
e 203 841
e 203 884
e 203 920
e 203 931
e 203 986
e 204 251
e 204 258
e 204 282
e 204 343
e 204 364
e 204 387
e 204 480
e 204 527
e 204 531
e 204 562
e 204 564
e 204 594
e 204 624
e 204 642
e 204 646
e 204 650
e 204 669
e 204 671
e 204 679
e 204 683
e 204 685
e 204 699
e 204 723
e 204 739
e 204 764
e 204 773
e 204 782
e 204 803
e 204 804
e 204 874
e 204 915
e 204 940
e 204 971
e 204 985
e 205 266
e 205 268
e 205 301
e 205 312
e 205 332
e 205 371
e 205 385
e 205 398
e 205 408
e 205 418
e 205 419
e 205 430
e 205 486
e 205 490
e 205 527
e 205 563
e 205 572
e 205 605
e 205 608
e 205 630
e 205 655
e 205 693
e 205 699
e 205 731
e 205 735
e 205 771
e 205 773
e 205 783
e 205 801
e 205 885
e 205 889
e 205 935
e 205 952
e 205 960
e 205 977
e 206 260
e 206 281
e 206 288
e 206 306
e 206 339
e 206 364
e 206 414
e 206 456
e 206 459
e 206 470
e 206 509
e 206 537
e 206 569
e 206 600
e 206 606
e 206 615
e 206 641
e 206 652
e 206 694
e 206 695
e 206 696
e 206 706
e 206 714
e 206 722
e 206 805
e 206 808
e 206 810
e 206 826
e 206 850
e 206 864
e 206 867
e 206 895
e 206 900
e 206 932
e 206 955
e 206 989
e 206 1000
e 207 252
e 207 290
e 207 302
e 207 328
e 207 338
e 207 371
e 207 404
e 207 424
e 207 430
e 207 458
e 207 463
e 207 483
e 207 492
e 207 518
e 207 539
e 207 541
e 207 556
e 207 565
e 207 578
e 207 582
e 207 586
e 207 590
e 207 608
e 207 621
e 207 645
e 207 666
e 207 692
e 207 695
e 207 703
e 207 715
e 207 762
e 207 776
e 207 784
e 207 787
e 207 788
e 207 800
e 207 803
e 207 844
e 207 861
e 207 886
e 207 915
e 207 926
e 207 936
e 207 983
e 207 991
e 208 273
e 208 294
e 208 340
e 208 371
e 208 410
e 208 411
e 208 434
e 208 436
e 208 442
e 208 445
e 208 467
e 208 469
e 208 514
e 208 550
e 208 559
e 208 622
e 208 623
e 208 733
e 208 770
e 208 776
e 208 777
e 208 782
e 208 789
e 208 798
e 208 806
e 208 848
e 208 879
e 208 891
e 208 904
e 208 912
e 208 917
e 208 966
e 208 970
e 209 271
e 209 307
e 209 346
e 209 429
e 209 457
e 209 459
e 209 460
e 209 489
e 209 518
e 209 537
e 209 576
e 209 584
e 209 614
e 209 629
e 209 652
e 209 691
e 209 710
e 209 740
e 209 787
e 209 809
e 209 815
e 209 822
e 209 826
e 209 827
e 209 851
e 209 912
e 209 930
e 209 946
e 209 949
e 209 957
e 209 983
e 210 285
e 210 335
e 210 345
e 210 354
e 210 380
e 210 452
e 210 489
e 210 506
e 210 528
e 210 542
e 210 562
e 210 572
e 210 578
e 210 584
e 210 616
e 210 620
e 210 632
e 210 655
e 210 657
e 210 682
e 210 709
e 210 713
e 210 716
e 210 719
e 210 764
e 210 773
e 210 817
e 210 834
e 210 864
e 210 878
e 210 903
e 210 939
e 210 964
e 210 969
e 210 972
e 210 978
e 210 979
e 210 983
e 210 986
e 210 988
e 211 283
e 211 285
e 211 297
e 211 301
e 211 304
e 211 366
e 211 405
e 211 449
e 211 511
e 211 541
e 211 567
e 211 591
e 211 613
e 211 622
e 211 660
e 211 690
e 211 724
e 211 751
e 211 765
e 211 772
e 211 778
e 211 781
e 211 796
e 211 815
e 211 822
e 211 842
e 211 863
e 211 865
e 211 866
e 211 872
e 211 886
e 211 946
e 211 961
e 211 964
e 211 986
e 212 275
e 212 280
e 212 292
e 212 324
e 212 387
e 212 398
e 212 437
e 212 442
e 212 481
e 212 489
e 212 495
e 212 508
e 212 521
e 212 530
e 212 573
e 212 633
e 212 654
e 212 658
e 212 679
e 212 699
e 212 712
e 212 746
e 212 762
e 212 788
e 212 813
e 212 816
e 212 819
e 212 823
e 212 836
e 212 898
e 212 916
e 212 946
e 212 965
e 212 968
e 212 973
e 212 996
e 213 264
e 213 271
e 213 273
e 213 301
e 213 315
e 213 332
e 213 344
e 213 365
e 213 369
e 213 374
e 213 376
e 213 395
e 213 409
e 213 430
e 213 450
e 213 459
e 213 474
e 213 485
e 213 487
e 213 495
e 213 501
e 213 531
e 213 535
e 213 545
e 213 573
e 213 628
e 213 643
e 213 646
e 213 657
e 213 658
e 213 661
e 213 715
e 213 720
e 213 751
e 213 766
e 213 792
e 213 834
e 213 906
e 213 913
e 213 918
e 213 934
e 213 944
e 213 952
e 213 954
e 213 971
e 214 251
e 214 264
e 214 272
e 214 289
e 214 295
e 214 304
e 214 307
e 214 336
e 214 338
e 214 342
e 214 345
e 214 359
e 214 363
e 214 405
e 214 444
e 214 448
e 214 449
e 214 454
e 214 460
e 214 464
e 214 537
e 214 557
e 214 564
e 214 567
e 214 591
e 214 636
e 214 664
e 214 763
e 214 766
e 214 771
e 214 795
e 214 796
e 214 832
e 214 864
e 214 867
e 214 869
e 214 901
e 214 932
e 214 943
e 214 976
e 214 988
e 215 277
e 215 279
e 215 289
e 215 332
e 215 345
e 215 370
e 215 387
e 215 401
e 215 406
e 215 416
e 215 451
e 215 473
e 215 474
e 215 478
e 215 490
e 215 492
e 215 511
e 215 541
e 215 553
e 215 560
e 215 563
e 215 619
e 215 635
e 215 656
e 215 670
e 215 680
e 215 688
e 215 703
e 215 717
e 215 751
e 215 762
e 215 764
e 215 772
e 215 784
e 215 795
e 215 823
e 215 838
e 215 846
e 215 862
e 215 864
e 215 868
e 215 919
e 215 924
e 215 946
e 215 959
e 215 960
e 215 975
e 216 262
e 216 275
e 216 287
e 216 291
e 216 300
e 216 314
e 216 368
e 216 403
e 216 407
e 216 423
e 216 429
e 216 501
e 216 507
e 216 514
e 216 540
e 216 547
e 216 567
e 216 569
e 216 571
e 216 642
e 216 659
e 216 671
e 216 700
e 216 722
e 216 739
e 216 750
e 216 770
e 216 786
e 216 794
e 216 826
e 216 878
e 216 880
e 216 923
e 216 998
e 217 270
e 217 382
e 217 409
e 217 422
e 217 458
e 217 530
e 217 568
e 217 584
e 217 607
e 217 631
e 217 634
e 217 700
e 217 701
e 217 715
e 217 728
e 217 747
e 217 755
e 217 756
e 217 772
e 217 788
e 217 811
e 217 813
e 217 853
e 217 854
e 217 904
e 217 915
e 217 953
e 217 959
e 217 965
e 217 987
e 217 990
e 218 252
e 218 258
e 218 265
e 218 270
e 218 275
e 218 286
e 218 315
e 218 318
e 218 320
e 218 329
e 218 333
e 218 350
e 218 361
e 218 445
e 218 463
e 218 475
e 218 491
e 218 543
e 218 590
e 218 596
e 218 617
e 218 618
e 218 663
e 218 690
e 218 695
e 218 697
e 218 706
e 218 752
e 218 816
e 218 831
e 218 871
e 218 885
e 218 897
e 218 912
e 218 928
e 218 951
e 218 956
e 218 959
e 218 964
e 218 981
e 219 280
e 219 303
e 219 317
e 219 344
e 219 349
e 219 372
e 219 391
e 219 452
e 219 457
e 219 485
e 219 519
e 219 532
e 219 535
e 219 570
e 219 612
e 219 618
e 219 619
e 219 630
e 219 634
e 219 639
e 219 652
e 219 660
e 219 678
e 219 695
e 219 730
e 219 735
e 219 749
e 219 750
e 219 767
e 219 779
e 219 802
e 219 852
e 219 854
e 219 947
e 219 954
e 219 973
e 220 268
e 220 292
e 220 305
e 220 319
e 220 323
e 220 325
e 220 348
e 220 353
e 220 368
e 220 376
e 220 413
e 220 418
e 220 436
e 220 449
e 220 477
e 220 500
e 220 534
e 220 572
e 220 627
e 220 676
e 220 712
e 220 714
e 220 719
e 220 726
e 220 764
e 220 797
e 220 817
e 220 850
e 220 863
e 220 870
e 220 880
e 220 907
e 220 923
e 220 936
e 220 989
e 221 253
e 221 277
e 221 297
e 221 305
e 221 332
e 221 352
e 221 368
e 221 387
e 221 388
e 221 406
e 221 467
e 221 505
e 221 526
e 221 530
e 221 538
e 221 557
e 221 571
e 221 620
e 221 647
e 221 651
e 221 741
e 221 744
e 221 804
e 221 808
e 221 825
e 221 906
e 221 967
e 221 971
e 221 972
e 221 990
e 221 1000
e 222 251
e 222 288
e 222 317
e 222 327
e 222 343
e 222 348
e 222 359
e 222 376
e 222 391
e 222 409
e 222 462
e 222 470
e 222 472
e 222 489
e 222 490
e 222 503
e 222 521
e 222 570
e 222 589
e 222 603
e 222 606
e 222 630
e 222 654
e 222 655
e 222 667
e 222 718
e 222 732
e 222 758
e 222 766
e 222 822
e 222 828
e 222 850
e 222 884
e 222 896
e 222 899
e 222 902
e 222 905
e 222 910
e 222 923
e 222 976
e 222 977
e 222 998
e 222 999
e 223 262
e 223 264
e 223 279
e 223 294
e 223 295
e 223 321
e 223 343
e 223 346
e 223 396
e 223 425
e 223 436
e 223 444
e 223 451
e 223 483
e 223 543
e 223 571
e 223 585
e 223 619
e 223 638
e 223 644
e 223 657
e 223 662
e 223 663
e 223 689
e 223 693
e 223 707
e 223 768
e 223 775
e 223 797
e 223 828
e 223 865
e 223 908
e 223 964
e 223 982
e 223 998
e 224 251
e 224 252
e 224 255
e 224 294
e 224 299
e 224 325
e 224 350
e 224 355
e 224 357
e 224 386
e 224 408
e 224 428
e 224 447
e 224 496
e 224 510
e 224 561
e 224 607
e 224 653
e 224 656
e 224 659
e 224 692
e 224 701
e 224 713
e 224 729
e 224 732
e 224 776
e 224 779
e 224 781
e 224 835
e 224 849
e 224 854
e 224 857
e 224 892
e 224 954
e 224 966
e 224 992
e 225 255
e 225 262
e 225 263
e 225 273
e 225 280
e 225 330
e 225 333
e 225 334
e 225 344
e 225 351
e 225 355
e 225 376
e 225 391
e 225 403
e 225 414
e 225 418
e 225 492
e 225 515
e 225 520
e 225 528
e 225 604
e 225 612
e 225 637
e 225 649
e 225 653
e 225 657
e 225 658
e 225 664
e 225 682
e 225 701
e 225 705
e 225 716
e 225 718
e 225 720
e 225 734
e 225 771
e 225 779
e 225 787
e 225 799
e 225 834
e 225 835
e 225 879
e 225 893
e 225 905
e 225 918
e 225 928
e 225 961
e 225 973
e 226 378
e 226 379
e 226 388
e 226 411
e 226 428
e 226 431
e 226 432
e 226 446
e 226 450
e 226 476
e 226 477
e 226 489
e 226 495
e 226 517
e 226 535
e 226 537
e 226 555
e 226 556
e 226 569
e 226 597
e 226 616
e 226 622
e 226 719
e 226 774
e 226 802
e 226 812
e 226 825
e 226 863
e 226 864
e 226 922
e 226 926
e 226 929
e 226 945
e 226 949
e 226 968
e 226 969
e 226 980
e 226 995
e 227 262
e 227 296
e 227 359
e 227 370
e 227 371
e 227 393
e 227 419
e 227 434
e 227 440
e 227 462
e 227 469
e 227 476
e 227 491
e 227 590
e 227 597
e 227 609
e 227 627
e 227 629
e 227 639
e 227 679
e 227 681
e 227 698
e 227 705
e 227 715
e 227 731
e 227 755
e 227 758
e 227 781
e 227 815
e 227 880
e 227 888
e 227 900
e 227 907
e 227 958
e 227 972
e 227 978
e 227 984
e 227 997
e 228 254
e 228 260
e 228 264
e 228 265
e 228 285
e 228 317
e 228 336
e 228 338
e 228 343
e 228 360
e 228 370
e 228 506
e 228 526
e 228 547
e 228 556
e 228 567
e 228 578
e 228 584
e 228 596
e 228 636
e 228 698
e 228 708
e 228 715
e 228 720
e 228 732
e 228 748
e 228 758
e 228 782
e 228 797
e 228 799
e 228 843
e 228 859
e 228 878
e 228 886
e 228 910
e 228 912
e 228 924
e 228 943
e 228 982
e 229 346
e 229 362
e 229 407
e 229 411
e 229 450
e 229 484
e 229 487
e 229 523
e 229 572
e 229 589
e 229 599
e 229 610
e 229 613
e 229 667
e 229 707
e 229 747
e 229 759
e 229 808
e 229 813
e 229 897
e 229 912
e 229 914
e 229 924
e 229 925
e 229 957
e 229 962
e 229 987
e 230 266
e 230 281
e 230 295
e 230 319
e 230 322
e 230 324
e 230 332
e 230 355
e 230 359
e 230 389
e 230 393
e 230 401
e 230 420
e 230 441
e 230 470
e 230 471
e 230 490
e 230 497
e 230 504
e 230 561
e 230 575
e 230 576
e 230 592
e 230 597
e 230 604
e 230 673
e 230 678
e 230 681
e 230 719
e 230 745
e 230 772
e 230 773
e 230 779
e 230 812
e 230 813
e 230 840
e 230 885
e 230 893
e 230 953
e 230 977
e 230 979
e 230 981
e 230 993
e 231 277
e 231 283
e 231 292
e 231 319
e 231 336
e 231 361
e 231 371
e 231 374
e 231 424
e 231 458
e 231 464
e 231 498
e 231 546
e 231 568
e 231 618
e 231 636
e 231 669
e 231 678
e 231 691
e 231 714
e 231 727
e 231 748
e 231 754
e 231 780
e 231 807
e 231 827
e 231 861
e 231 882
e 231 940
e 231 969
e 232 256
e 232 304
e 232 310
e 232 398
e 232 399
e 232 400
e 232 441
e 232 447
e 232 474
e 232 493
e 232 523
e 232 542
e 232 543
e 232 546
e 232 556
e 232 557
e 232 632
e 232 637
e 232 677
e 232 701
e 232 706
e 232 707
e 232 750
e 232 786
e 232 802
e 232 805
e 232 898
e 232 907
e 232 909
e 232 928
e 232 930
e 232 945
e 232 969
e 232 970
e 232 981
e 232 999
e 233 263
e 233 309
e 233 326
e 233 340
e 233 346
e 233 381
e 233 426
e 233 466
e 233 472
e 233 479
e 233 503
e 233 504
e 233 505
e 233 543
e 233 583
e 233 641
e 233 666
e 233 668
e 233 672
e 233 681
e 233 707
e 233 717
e 233 721
e 233 730
e 233 733
e 233 754
e 233 790
e 233 797
e 233 799
e 233 809
e 233 861
e 233 898
e 233 934
e 233 940
e 233 979
e 233 998
e 234 279
e 234 291
e 234 306
e 234 314
e 234 318
e 234 352
e 234 355
e 234 392
e 234 395
e 234 432
e 234 456
e 234 471
e 234 493
e 234 496
e 234 517
e 234 521
e 234 614
e 234 632
e 234 666
e 234 719
e 234 725
e 234 729
e 234 736
e 234 743
e 234 770
e 234 790
e 234 793
e 234 797
e 234 813
e 234 824
e 234 834
e 234 856
e 234 867
e 234 887
e 234 902
e 234 910
e 234 918
e 234 946
e 234 967
e 234 990
e 235 263
e 235 285
e 235 286
e 235 297
e 235 336
e 235 361
e 235 377
e 235 398
e 235 415
e 235 432
e 235 441
e 235 451
e 235 507
e 235 508
e 235 522
e 235 609
e 235 615
e 235 631
e 235 633
e 235 640
e 235 739
e 235 752
e 235 774
e 235 775
e 235 781
e 235 818
e 235 844
e 235 848
e 235 904
e 235 912
e 235 927
e 235 946
e 235 954
e 235 986
e 235 991
e 236 284
e 236 293
e 236 311
e 236 319
e 236 323
e 236 348
e 236 400
e 236 407
e 236 469
e 236 486
e 236 531
e 236 560
e 236 581
e 236 633
e 236 665
e 236 702
e 236 739
e 236 791
e 236 794
e 236 877
e 236 879
e 236 884
e 236 895
e 236 933
e 236 941
e 236 981
e 236 987
e 236 989
e 237 270
e 237 271
e 237 279
e 237 283
e 237 284
e 237 292
e 237 316
e 237 339
e 237 356
e 237 404
e 237 412
e 237 414
e 237 422
e 237 460
e 237 474
e 237 478
e 237 480
e 237 500
e 237 536
e 237 552
e 237 621
e 237 630
e 237 634
e 237 716
e 237 717
e 237 727
e 237 728
e 237 746
e 237 747
e 237 785
e 237 794
e 237 805
e 237 816
e 237 853
e 237 873
e 237 880
e 237 886
e 237 903
e 237 938
e 237 943
e 237 955
e 238 262
e 238 277
e 238 282
e 238 314
e 238 315
e 238 382
e 238 413
e 238 433
e 238 435
e 238 480
e 238 523
e 238 535
e 238 586
e 238 588
e 238 593
e 238 615
e 238 626
e 238 638
e 238 657
e 238 659
e 238 671
e 238 721
e 238 734
e 238 737
e 238 753
e 238 762
e 238 768
e 238 790
e 238 792
e 238 807
e 238 817
e 238 831
e 238 872
e 238 907
e 238 921
e 238 933
e 238 934
e 238 968
e 239 272
e 239 287
e 239 325
e 239 338
e 239 342
e 239 360
e 239 361
e 239 471
e 239 522
e 239 529
e 239 533
e 239 534
e 239 548
e 239 566
e 239 587
e 239 619
e 239 635
e 239 657
e 239 668
e 239 688
e 239 691
e 239 708
e 239 771
e 239 784
e 239 799
e 239 811
e 239 820
e 239 851
e 239 856
e 239 872
e 239 876
e 239 879
e 239 897
e 239 936
e 239 982
e 240 261
e 240 271
e 240 315
e 240 318
e 240 373
e 240 381
e 240 418
e 240 435
e 240 454
e 240 467
e 240 495
e 240 501
e 240 523
e 240 537
e 240 564
e 240 596
e 240 614
e 240 634
e 240 670
e 240 676
e 240 705
e 240 711
e 240 731
e 240 763
e 240 806
e 240 817
e 240 840
e 240 859
e 240 885
e 240 896
e 240 904
e 240 953
e 240 959
e 240 975
e 240 988
e 241 252
e 241 301
e 241 305
e 241 310
e 241 334
e 241 407
e 241 419
e 241 429
e 241 457
e 241 474
e 241 484
e 241 498
e 241 523
e 241 530
e 241 540
e 241 546
e 241 593
e 241 618
e 241 656
e 241 667
e 241 688
e 241 696
e 241 708
e 241 721
e 241 725
e 241 729
e 241 750
e 241 756
e 241 798
e 241 893
e 241 898
e 241 899
e 241 901
e 241 906
e 241 924
e 241 942
e 241 987
e 242 259
e 242 260
e 242 261
e 242 273
e 242 291
e 242 384
e 242 395
e 242 410
e 242 411
e 242 422
e 242 457
e 242 458
e 242 566
e 242 602
e 242 643
e 242 648
e 242 667
e 242 716
e 242 739
e 242 785
e 242 790
e 242 805
e 242 808
e 242 813
e 242 832
e 242 838
e 242 839
e 242 881
e 242 893
e 242 898
e 242 905
e 242 909
e 242 923
e 242 936
e 243 290
e 243 314
e 243 329
e 243 339
e 243 415
e 243 423
e 243 428
e 243 434
e 243 440
e 243 458
e 243 472
e 243 473
e 243 569
e 243 571
e 243 600
e 243 626
e 243 691
e 243 753
e 243 756
e 243 760
e 243 762
e 243 765
e 243 785
e 243 808
e 243 820
e 243 864
e 243 874
e 243 911
e 243 915
e 243 918
e 243 921
e 243 930
e 243 936
e 243 943
e 243 960
e 243 976
e 243 980
e 244 251
e 244 257
e 244 260
e 244 267
e 244 315
e 244 321
e 244 369
e 244 433
e 244 434
e 244 447
e 244 460
e 244 485
e 244 498
e 244 517
e 244 520
e 244 526
e 244 552
e 244 593
e 244 623
e 244 665
e 244 670
e 244 676
e 244 717
e 244 751
e 244 821
e 244 900
e 244 965
e 244 970
e 244 997
e 245 269
e 245 274
e 245 290
e 245 291
e 245 338
e 245 349
e 245 371
e 245 400
e 245 415
e 245 417
e 245 489
e 245 503
e 245 507
e 245 563
e 245 573
e 245 604
e 245 647
e 245 694
e 245 701
e 245 708
e 245 744
e 245 757
e 245 793
e 245 821
e 245 823
e 245 847
e 245 853
e 245 857
e 245 862
e 245 865
e 245 894
e 245 928
e 245 938
e 245 971
e 245 976
e 245 983
e 245 993
e 246 268
e 246 354
e 246 378
e 246 425
e 246 435
e 246 549
e 246 583
e 246 620
e 246 623
e 246 633
e 246 640
e 246 657
e 246 660
e 246 678
e 246 723
e 246 772
e 246 814
e 246 819
e 246 840
e 246 868
e 246 906
e 246 945
e 246 973
e 247 283
e 247 315
e 247 318
e 247 321
e 247 334
e 247 337
e 247 338
e 247 426
e 247 463
e 247 468
e 247 481
e 247 503
e 247 526
e 247 536
e 247 566
e 247 573
e 247 599
e 247 642
e 247 680
e 247 723
e 247 746
e 247 764
e 247 803
e 247 876
e 247 885
e 247 925
e 247 973
e 247 979
e 247 997
e 248 276
e 248 297
e 248 316
e 248 317
e 248 327
e 248 330
e 248 351
e 248 352
e 248 371
e 248 384
e 248 422
e 248 444
e 248 470
e 248 474
e 248 485
e 248 500
e 248 530
e 248 558
e 248 564
e 248 661
e 248 668
e 248 687
e 248 720
e 248 729
e 248 736
e 248 748
e 248 755
e 248 777
e 248 790
e 248 826
e 248 861
e 248 921
e 248 958
e 248 959
e 249 347
e 249 368
e 249 388
e 249 394
e 249 406
e 249 460
e 249 471
e 249 499
e 249 501
e 249 528
e 249 579
e 249 586
e 249 604
e 249 641
e 249 655
e 249 679
e 249 716
e 249 719
e 249 728
e 249 743
e 249 764
e 249 773
e 249 800
e 249 838
e 249 876
e 249 885
e 249 890
e 249 896
e 249 908
e 249 921
e 249 933
e 249 936
e 249 953
e 249 972
e 250 271
e 250 281
e 250 291
e 250 316
e 250 358
e 250 378
e 250 409
e 250 441
e 250 496
e 250 571
e 250 628
e 250 648
e 250 668
e 250 675
e 250 691
e 250 720
e 250 743
e 250 745
e 250 752
e 250 754
e 250 773
e 250 784
e 250 802
e 250 808
e 250 854
e 250 868
e 250 906
e 250 924
e 250 925
e 250 946
e 250 949
e 250 950
e 250 968
e 250 983
