p edge 1000 1758
e 1 284
e 1 286
e 1 318
e 1 409
e 1 411
e 1 472
e 1 492
e 1 708
e 2 356
e 2 387
e 2 524
e 2 530
e 2 594
e 2 675
e 2 686
e 2 845
e 3 253
e 3 326
e 3 607
e 3 613
e 3 774
e 3 793
e 3 854
e 3 951
e 3 976
e 5 607
e 5 632
e 5 880
e 6 376
e 6 448
e 6 549
e 6 632
e 6 648
e 6 708
e 7 254
e 7 442
e 7 502
e 7 505
e 7 519
e 7 539
e 7 546
e 7 871
e 7 893
e 7 935
e 8 272
e 8 319
e 8 595
e 8 625
e 8 717
e 8 727
e 8 732
e 8 787
e 8 891
e 8 904
e 9 290
e 9 303
e 9 441
e 9 863
e 9 866
e 9 990
e 10 281
e 10 648
e 10 790
e 10 823
e 11 260
e 11 348
e 11 599
e 11 636
e 11 802
e 12 873
e 13 462
e 13 484
e 13 510
e 13 603
e 13 643
e 13 810
e 13 925
e 13 977
e 14 636
e 14 743
e 14 769
e 14 771
e 14 788
e 14 832
e 14 845
e 14 991
e 15 294
e 15 527
e 15 606
e 15 943
e 16 260
e 16 266
e 16 321
e 16 754
e 16 813
e 16 869
e 17 408
e 17 715
e 17 719
e 17 845
e 17 921
e 17 950
e 18 309
e 18 427
e 18 448
e 18 614
e 18 692
e 18 816
e 18 854
e 18 885
e 19 272
e 19 328
e 19 356
e 19 695
e 19 719
e 19 763
e 19 793
e 19 819
e 20 488
e 20 490
e 20 492
e 20 657
e 20 715
e 20 745
e 20 813
e 21 252
e 21 460
e 21 556
e 21 616
e 21 877
e 21 905
e 21 910
e 21 948
e 22 393
e 22 481
e 22 483
e 22 734
e 22 796
e 22 962
e 23 695
e 23 733
e 23 752
e 23 900
e 23 985
e 23 992
e 24 521
e 24 571
e 24 621
e 24 704
e 24 727
e 24 730
e 25 304
e 25 382
e 25 383
e 25 436
e 25 715
e 25 929
e 26 284
e 26 352
e 26 862
e 26 950
e 27 259
e 27 275
e 27 279
e 27 598
e 27 615
e 27 661
e 27 722
e 27 756
e 27 938
e 28 301
e 28 319
e 28 324
e 28 351
e 28 385
e 28 395
e 28 457
e 28 525
e 29 254
e 29 291
e 29 323
e 29 378
e 29 563
e 29 594
e 29 694
e 29 719
e 29 768
e 29 776
e 29 816
e 29 847
e 29 914
e 29 929
e 30 348
e 30 382
e 30 385
e 30 395
e 30 696
e 30 756
e 30 778
e 30 785
e 30 811
e 31 329
e 31 863
e 31 905
e 31 939
e 31 977
e 32 510
e 32 524
e 32 602
e 32 770
e 32 821
e 32 840
e 33 283
e 33 327
e 33 408
e 33 413
e 33 597
e 33 627
e 33 822
e 33 825
e 34 334
e 34 500
e 34 533
e 34 575
e 34 654
e 34 689
e 34 972
e 35 317
e 35 407
e 35 530
e 35 568
e 35 634
e 35 694
e 35 831
e 35 858
e 36 538
e 36 644
e 36 833
e 37 257
e 37 439
e 37 478
e 37 555
e 37 712
e 37 717
e 37 734
e 37 836
e 37 873
e 37 913
e 37 929
e 38 501
e 38 563
e 38 662
e 38 828
e 39 657
e 39 736
e 39 811
e 40 362
e 40 396
e 40 470
e 40 903
e 41 289
e 41 494
e 41 521
e 41 556
e 42 322
e 42 385
e 42 770
e 42 944
e 43 261
e 43 301
e 43 528
e 43 614
e 43 683
e 43 860
e 44 299
e 44 305
e 44 794
e 44 810
e 44 882
e 45 323
e 45 328
e 45 384
e 45 893
e 45 907
e 46 399
e 46 422
e 46 428
e 46 464
e 46 690
e 46 842
e 46 921
e 47 410
e 47 484
e 47 621
e 47 647
e 47 693
e 47 703
e 47 852
e 48 627
e 48 630
e 48 670
e 48 786
e 48 809
e 48 869
e 49 273
e 49 280
e 49 584
e 49 731
e 49 849
e 49 885
e 49 896
e 49 909
e 49 949
e 50 270
e 50 496
e 50 693
e 51 374
e 51 498
e 51 851
e 51 867
e 51 966
e 52 600
e 52 834
e 52 870
e 53 351
e 53 477
e 53 622
e 53 727
e 53 845
e 53 866
e 54 331
e 54 379
e 54 409
e 54 559
e 54 599
e 54 622
e 54 651
e 54 768
e 54 888
e 54 905
e 54 991
e 54 1000
e 55 331
e 55 349
e 55 400
e 55 443
e 55 476
e 55 517
e 55 602
e 55 685
e 55 855
e 55 987
e 56 251
e 56 376
e 56 419
e 56 495
e 56 578
e 56 700
e 56 747
e 57 294
e 57 354
e 57 513
e 57 549
e 57 570
e 57 606
e 57 659
e 57 802
e 58 302
e 58 365
e 58 386
e 58 443
e 58 717
e 58 781
e 58 848
e 59 260
e 59 262
e 59 277
e 59 551
e 59 609
e 59 732
e 60 330
e 60 407
e 60 487
e 60 590
e 60 695
e 60 745
e 60 791
e 61 336
e 61 458
e 61 615
e 61 644
e 61 774
e 61 836
e 61 842
e 61 871
e 61 877
e 61 937
e 62 278
e 62 426
e 62 531
e 62 737
e 62 750
e 62 913
e 62 957
e 63 310
e 63 374
e 63 387
e 63 478
e 63 677
e 63 693
e 63 729
e 64 288
e 64 328
e 64 470
e 64 577
e 64 588
e 64 612
e 64 622
e 64 722
e 65 290
e 65 346
e 65 351
e 65 443
e 65 508
e 65 539
e 65 659
e 65 781
e 65 845
e 66 368
e 66 388
e 66 489
e 66 687
e 66 703
e 66 878
e 67 334
e 67 631
e 67 645
e 67 998
e 68 282
e 68 320
e 68 384
e 68 431
e 68 452
e 68 458
e 68 801
e 68 913
e 68 1000
e 69 427
e 69 440
e 69 501
e 69 598
e 69 632
e 69 633
e 69 685
e 69 705
e 69 750
e 69 773
e 69 777
e 69 944
e 70 305
e 70 449
e 70 664
e 70 704
e 70 771
e 70 906
e 71 488
e 71 489
e 71 507
e 71 520
e 71 575
e 71 642
e 71 702
e 71 723
e 71 749
e 71 860
e 71 911
e 72 598
e 72 787
e 72 844
e 72 935
e 73 342
e 73 352
e 73 397
e 73 536
e 73 615
e 73 625
e 73 661
e 73 681
e 73 741
e 73 745
e 73 746
e 73 756
e 73 785
e 73 955
e 74 329
e 74 425
e 74 558
e 74 572
e 74 809
e 75 340
e 75 348
e 75 399
e 75 408
e 75 447
e 75 577
e 75 725
e 75 800
e 75 841
e 75 897
e 75 952
e 75 985
e 76 310
e 76 591
e 76 637
e 76 759
e 76 761
e 76 883
e 77 260
e 77 494
e 77 532
e 77 645
e 77 724
e 77 859
e 77 894
e 77 918
e 78 358
e 78 437
e 78 448
e 78 470
e 78 596
e 78 733
e 78 934
e 79 286
e 79 343
e 79 345
e 79 709
e 79 779
e 79 925
e 79 998
e 80 343
e 80 619
e 80 627
e 80 641
e 80 677
e 81 332
e 81 388
e 81 441
e 81 514
e 81 616
e 81 625
e 81 806
e 81 953
e 82 260
e 82 372
e 82 453
e 82 500
e 82 667
e 82 923
e 82 968
e 83 328
e 83 400
e 83 456
e 83 564
e 83 589
e 83 724
e 83 735
e 83 934
e 84 283
e 84 351
e 84 405
e 84 440
e 84 603
e 84 711
e 84 772
e 84 853
e 84 862
e 84 888
e 84 906
e 84 937
e 85 270
e 85 488
e 85 574
e 85 872
e 86 366
e 86 550
e 86 651
e 86 795
e 86 806
e 86 831
e 87 346
e 87 530
e 87 744
e 87 849
e 87 874
e 87 939
e 87 940
e 87 964
e 88 278
e 88 430
e 88 550
e 88 570
e 88 585
e 88 656
e 88 683
e 88 752
e 89 429
e 89 499
e 89 607
e 89 720
e 89 868
e 90 287
e 90 510
e 90 576
e 91 286
e 91 419
e 91 482
e 91 701
e 91 725
e 91 827
e 91 861
e 91 999
e 92 256
e 92 311
e 92 384
e 92 587
e 92 659
e 92 782
e 92 804
e 92 821
e 92 964
e 93 385
e 93 393
e 93 413
e 93 533
e 93 561
e 93 598
e 94 257
e 94 322
e 94 457
e 94 505
e 94 546
e 94 588
e 94 802
e 95 445
e 95 501
e 95 520
e 95 627
e 95 817
e 95 878
e 95 988
e 96 463
e 96 682
e 96 804
e 97 275
e 97 397
e 97 399
e 97 402
e 97 507
e 97 576
e 97 746
e 97 915
e 98 350
e 98 354
e 98 430
e 98 892
e 98 906
e 99 341
e 99 345
e 99 445
e 99 925
e 99 934
e 100 355
e 100 596
e 100 598
e 100 701
e 100 882
e 101 259
e 101 363
e 101 556
e 101 573
e 101 784
e 101 789
e 102 331
e 102 347
e 102 414
e 102 496
e 102 502
e 102 518
e 102 560
e 103 359
e 103 401
e 103 414
e 103 421
e 103 544
e 104 273
e 104 348
e 104 362
e 104 552
e 104 684
e 104 713
e 104 738
e 104 752
e 104 841
e 105 287
e 105 302
e 105 309
e 105 342
e 105 357
e 105 401
e 105 403
e 105 481
e 105 668
e 105 810
e 106 275
e 106 694
e 106 803
e 106 851
e 107 282
e 107 324
e 107 406
e 107 557
e 107 796
e 107 913
e 107 951
e 108 260
e 108 400
e 108 432
e 108 489
e 108 659
e 108 794
e 108 831
e 108 858
e 108 862
e 108 878
e 108 920
e 108 939
e 108 978
e 109 388
e 109 463
e 109 569
e 109 720
e 109 761
e 109 826
e 109 839
e 109 994
e 110 498
e 110 712
e 110 718
e 111 337
e 111 421
e 111 481
e 111 700
e 111 873
e 111 875
e 112 323
e 112 435
e 112 624
e 112 837
e 112 853
e 113 260
e 113 265
e 113 338
e 113 385
e 113 436
e 113 440
e 113 719
e 114 259
e 114 321
e 114 480
e 114 503
e 114 548
e 114 603
e 114 641
e 114 840
e 115 277
e 115 354
e 115 355
e 115 360
e 115 390
e 115 394
e 115 418
e 115 430
e 115 531
e 115 805
e 116 582
e 116 632
e 116 868
e 116 914
e 116 922
e 116 988
e 117 320
e 117 339
e 117 379
e 117 461
e 117 528
e 117 545
e 117 793
e 117 815
e 118 265
e 118 296
e 118 673
e 118 802
e 118 957
e 119 273
e 119 291
e 119 370
e 119 770
e 119 844
e 119 936
e 119 941
e 119 961
e 120 356
e 120 580
e 120 641
e 120 642
e 120 691
e 120 730
e 120 757
e 120 883
e 120 933
e 121 581
e 121 659
e 121 663
e 121 691
e 121 732
e 121 754
e 121 833
e 122 320
e 122 351
e 122 398
e 122 616
e 122 769
e 122 831
e 122 844
e 123 364
e 123 389
e 123 390
e 123 489
e 123 554
e 123 609
e 123 643
e 123 730
e 123 733
e 123 892
e 123 961
e 124 346
e 124 532
e 124 635
e 124 829
e 124 919
e 124 970
e 125 286
e 125 461
e 125 562
e 125 616
e 125 766
e 126 363
e 126 393
e 126 580
e 126 704
e 126 885
e 126 899
e 127 698
e 127 731
e 127 824
e 127 833
e 127 855
e 127 895
e 127 999
e 128 296
e 128 449
e 128 515
e 128 705
e 128 764
e 129 288
e 129 294
e 129 328
e 129 337
e 129 395
e 129 435
e 129 484
e 129 589
e 129 633
e 129 767
e 129 774
e 129 785
e 129 814
e 130 356
e 130 393
e 130 510
e 130 578
e 130 709
e 130 932
e 131 257
e 131 260
e 131 323
e 131 617
e 131 785
e 131 886
e 131 955
e 132 258
e 132 273
e 132 437
e 132 441
e 132 551
e 132 728
e 132 805
e 132 944
e 133 269
e 133 334
e 133 506
e 133 552
e 133 891
e 133 920
e 134 507
e 134 525
e 134 658
e 134 665
e 134 758
e 134 949
e 135 266
e 135 284
e 135 298
e 135 429
e 135 438
e 135 487
e 135 525
e 135 681
e 135 790
e 136 311
e 136 486
e 136 539
e 136 580
e 136 618
e 136 646
e 136 698
e 136 777
e 136 892
e 136 932
e 136 939
e 137 265
e 137 382
e 137 529
e 137 742
e 137 839
e 138 401
e 138 552
e 138 721
e 138 734
e 138 776
e 138 853
e 138 963
e 139 285
e 139 310
e 139 311
e 139 324
e 139 380
e 139 425
e 139 426
e 139 469
e 139 673
e 139 776
e 139 922
e 139 992
e 140 313
e 140 368
e 140 440
e 140 461
e 140 499
e 140 585
e 140 701
e 140 720
e 140 787
e 140 792
e 140 859
e 140 878
e 141 343
e 141 436
e 141 458
e 141 856
e 141 925
e 142 393
e 142 436
e 142 459
e 142 501
e 142 719
e 142 740
e 142 806
e 142 847
e 143 267
e 143 356
e 143 654
e 143 836
e 143 862
e 143 918
e 144 323
e 144 348
e 144 353
e 144 438
e 144 501
e 144 631
e 144 688
e 144 767
e 145 364
e 145 523
e 145 540
e 145 620
e 145 650
e 145 785
e 145 811
e 145 816
e 145 871
e 145 989
e 146 799
e 146 887
e 147 345
e 147 449
e 147 538
e 147 746
e 147 802
e 147 905
e 147 985
e 148 427
e 148 495
e 148 502
e 148 524
e 148 784
e 148 833
e 148 988
e 148 990
e 149 253
e 149 423
e 149 472
e 149 491
e 149 536
e 149 692
e 149 851
e 149 866
e 149 895
e 149 921
e 149 927
e 150 331
e 150 449
e 150 459
e 150 478
e 150 715
e 150 790
e 150 905
e 151 434
e 151 473
e 151 488
e 151 712
e 151 839
e 151 853
e 151 1000
e 152 326
e 152 353
e 152 410
e 152 429
e 152 609
e 152 666
e 152 675
e 152 776
e 152 929
e 153 303
e 153 337
e 153 346
e 153 398
e 153 460
e 153 573
e 153 590
e 153 783
e 153 908
e 154 289
e 154 312
e 154 348
e 154 373
e 154 439
e 154 498
e 154 571
e 154 662
e 154 677
e 154 781
e 154 801
e 154 807
e 154 831
e 154 869
e 154 899
e 155 265
e 155 407
e 155 540
e 155 550
e 155 902
e 156 462
e 156 560
e 156 562
e 156 794
e 156 847
e 156 920
e 157 486
e 157 506
e 157 567
e 157 659
e 157 823
e 157 952
e 158 269
e 158 536
e 158 559
e 158 645
e 158 694
e 158 909
e 159 593
e 159 801
e 159 870
e 159 891
e 160 378
e 160 391
e 160 448
e 160 710
e 160 917
e 160 998
e 161 324
e 161 396
e 161 489
e 161 505
e 161 537
e 161 603
e 161 836
e 161 938
e 161 988
e 162 256
e 162 315
e 162 347
e 162 352
e 162 437
e 162 639
e 162 739
e 162 775
e 162 856
e 162 913
e 162 952
e 162 991
e 163 315
e 163 396
e 163 681
e 163 836
e 163 871
e 163 977
e 164 383
e 164 657
e 164 715
e 164 737
e 164 931
e 165 264
e 165 314
e 165 792
e 165 864
e 165 896
e 166 409
e 166 592
e 166 619
e 166 704
e 166 869
e 166 940
e 167 500
e 167 589
e 167 637
e 167 843
e 167 877
e 167 895
e 167 976
e 167 991
e 168 495
e 168 518
e 168 654
e 168 699
e 169 259
e 169 361
e 169 568
e 169 589
e 169 772
e 169 814
e 169 993
e 170 343
e 170 505
e 170 509
e 170 614
e 170 701
e 170 715
e 170 891
e 171 327
e 171 371
e 171 409
e 171 426
e 171 660
e 171 678
e 172 293
e 172 326
e 172 752
e 172 761
e 172 846
e 172 916
e 172 943
e 173 268
e 173 277
e 173 404
e 173 574
e 173 612
e 173 647
e 173 658
e 173 683
e 173 717
e 173 829
e 173 852
e 173 869
e 173 926
e 173 988
e 174 325
e 174 448
e 174 484
e 174 512
e 174 557
e 174 579
e 174 596
e 174 748
e 174 761
e 174 769
e 174 791
e 174 855
e 175 391
e 175 490
e 175 571
e 175 646
e 175 651
e 175 704
e 175 711
e 175 753
e 175 822
e 175 956
e 176 520
e 176 569
e 176 734
e 176 833
e 176 896
e 176 960
e 177 278
e 177 575
e 177 622
e 177 633
e 177 687
e 177 901
e 177 902
e 178 451
e 179 262
e 179 319
e 179 642
e 179 770
e 179 854
e 179 920
e 180 604
e 180 795
e 181 416
e 181 608
e 181 717
e 181 823
e 182 322
e 182 750
e 182 831
e 182 852
e 182 888
e 183 251
e 183 468
e 183 546
e 183 790
e 184 315
e 184 332
e 184 560
e 184 562
e 184 678
e 184 908
e 184 973
e 184 979
e 184 987
e 185 307
e 185 316
e 185 456
e 185 481
e 185 604
e 185 900
e 186 261
e 186 334
e 186 389
e 186 552
e 186 561
e 186 638
e 186 726
e 186 876
e 186 953
e 187 263
e 187 313
e 187 410
e 187 482
e 188 319
e 188 573
e 188 671
e 188 672
e 188 679
e 188 715
e 188 923
e 188 961
e 188 974
e 189 326
e 189 544
e 189 703
e 189 834
e 189 858
e 189 994
e 190 365
e 190 378
e 190 380
e 190 422
e 190 444
e 190 459
e 190 566
e 190 589
e 190 628
e 190 707
e 190 791
e 190 799
e 190 874
e 191 264
e 191 377
e 191 522
e 191 850
e 191 874
e 191 998
e 192 334
e 192 337
e 192 538
e 192 564
e 192 570
e 192 629
e 192 655
e 192 694
e 192 887
e 193 279
e 193 522
e 193 725
e 193 768
e 193 927
e 194 371
e 194 453
e 194 752
e 194 845
e 195 536
e 195 540
e 195 821
e 196 422
e 196 639
e 196 657
e 196 696
e 196 718
e 196 865
e 196 921
e 196 925
e 196 951
e 197 358
e 197 562
e 197 660
e 197 687
e 197 711
e 197 723
e 197 778
e 197 846
e 198 291
e 198 298
e 198 308
e 198 370
e 198 381
e 198 453
e 198 515
e 198 607
e 198 731
e 198 976
e 198 983
e 198 990
e 199 266
e 199 373
e 199 420
e 199 909
e 199 931
e 199 936
e 200 257
e 200 264
e 200 323
e 200 345
e 200 425
e 200 681
e 200 1000
e 201 263
e 201 295
e 201 326
e 201 761
e 201 794
e 201 856
e 201 960
e 202 253
e 202 275
e 202 326
e 202 455
e 202 607
e 202 633
e 202 824
e 202 861
e 202 862
e 203 257
e 203 262
e 203 268
e 203 320
e 203 331
e 203 449
e 203 633
e 203 703
e 203 806
e 204 345
e 204 368
e 204 559
e 204 577
e 204 746
e 204 816
e 204 957
e 205 253
e 205 440
e 205 810
e 205 970
e 206 527
e 206 634
e 206 672
e 206 714
e 206 790
e 206 941
e 207 456
e 207 599
e 207 603
e 207 724
e 207 840
e 207 852
e 207 870
e 207 904
e 208 260
e 208 391
e 208 441
e 208 466
e 208 518
e 208 532
e 208 534
e 208 561
e 208 741
e 208 777
e 208 798
e 208 842
e 208 869
e 208 901
e 208 996
e 209 492
e 209 513
e 209 541
e 209 713
e 209 895
e 209 914
e 209 968
e 209 992
e 210 330
e 210 376
e 210 764
e 210 876
e 210 949
e 211 348
e 211 405
e 211 408
e 211 455
e 211 463
e 211 914
e 212 299
e 212 316
e 212 521
e 212 608
e 212 626
e 212 628
e 213 325
e 213 621
e 213 647
e 213 688
e 213 833
e 214 552
e 214 594
e 214 650
e 214 679
e 214 762
e 214 850
e 215 391
e 215 758
e 215 811
e 215 879
e 215 946
e 215 965
e 216 420
e 216 428
e 216 460
e 216 533
e 216 659
e 216 664
e 217 338
e 217 548
e 217 645
e 217 814
e 217 822
e 217 927
e 217 932
e 218 490
e 218 747
e 218 757
e 218 781
e 218 920
e 219 462
e 219 568
e 219 643
e 219 723
e 219 738
e 219 771
e 219 942
e 219 957
e 219 993
e 220 448
e 220 521
e 220 584
e 220 637
e 220 718
e 220 800
e 220 806
e 220 813
e 220 816
e 220 848
e 220 918
e 220 927
e 220 967
e 220 976
e 221 283
e 221 386
e 221 395
e 221 396
e 221 428
e 221 661
e 221 795
e 221 848
e 221 854
e 221 900
e 222 315
e 222 414
e 222 681
e 222 688
e 222 906
e 223 549
e 223 704
e 223 728
e 224 359
e 224 497
e 224 539
e 224 609
e 224 688
e 224 824
e 224 872
e 225 510
e 225 709
e 225 806
e 225 889
e 225 907
e 225 971
e 225 974
e 225 978
e 226 268
e 226 650
e 226 806
e 226 884
e 226 968
e 227 673
e 227 677
e 227 778
e 227 793
e 227 880
e 227 978
e 228 403
e 228 407
e 228 409
e 228 475
e 228 730
e 228 850
e 228 858
e 228 915
e 228 936
e 228 953
e 229 389
e 229 426
e 229 481
e 229 547
e 229 911
e 229 926
e 229 990
e 229 996
e 230 413
e 230 585
e 230 791
e 231 365
e 231 525
e 231 526
e 231 578
e 231 586
e 231 702
e 231 719
e 231 799
e 231 890
e 231 917
e 231 918
e 232 352
e 232 386
e 232 406
e 232 475
e 232 845
e 232 851
e 232 966
e 233 264
e 233 295
e 233 400
e 233 412
e 233 476
e 233 851
e 233 949
e 233 980
e 234 473
e 234 602
e 234 730
e 234 792
e 234 906
e 234 915
e 234 938
e 235 257
e 235 504
e 235 576
e 235 810
e 236 317
e 236 535
e 236 570
e 236 747
e 236 847
e 237 340
e 237 635
e 237 636
e 237 836
e 237 988
e 238 276
e 238 304
e 238 410
e 238 434
e 238 462
e 238 469
e 238 488
e 238 769
e 238 797
e 238 885
e 239 337
e 239 386
e 239 493
e 239 531
e 239 687
e 239 706
e 239 774
e 239 805
e 240 471
e 240 607
e 240 622
e 240 887
e 240 895
e 241 289
e 241 313
e 241 345
e 241 357
e 241 360
e 241 470
e 241 503
e 241 595
e 241 633
e 241 698
e 241 901
e 242 387
e 242 391
e 242 392
e 242 467
e 242 496
e 242 519
e 242 583
e 242 727
e 242 734
e 242 838
e 243 266
e 243 323
e 243 344
e 243 402
e 243 774
e 244 350
e 244 356
e 244 545
e 244 604
e 244 862
e 244 917
e 244 964
e 245 389
e 245 515
e 245 540
e 245 541
e 245 548
e 245 639
e 245 726
e 245 734
e 245 740
e 245 980
e 246 284
e 246 328
e 246 391
e 246 411
e 246 471
e 246 512
e 246 621
e 246 859
e 246 981
e 247 346
e 247 558
e 247 559
e 247 739
e 247 749
e 247 840
e 248 269
e 248 281
e 248 489
e 248 624
e 248 668
e 248 701
e 248 879
e 249 273
e 249 836
e 250 263
e 250 350
e 250 366
e 250 559
e 250 584
e 250 639
e 250 663
e 250 717
e 250 856
