p edge 1000 9230
e 1 262
e 1 284
e 1 313
e 1 330
e 1 333
e 1 342
e 1 356
e 1 359
e 1 411
e 1 429
e 1 455
e 1 466
e 1 475
e 1 493
e 1 505
e 1 533
e 1 535
e 1 550
e 1 605
e 1 637
e 1 642
e 1 643
e 1 645
e 1 648
e 1 650
e 1 656
e 1 706
e 1 707
e 1 720
e 1 743
e 1 746
e 1 762
e 1 766
e 1 797
e 1 812
e 1 818
e 1 849
e 1 852
e 1 880
e 1 886
e 1 906
e 1 914
e 1 933
e 1 956
e 1 978
e 1 979
e 2 262
e 2 281
e 2 292
e 2 333
e 2 366
e 2 369
e 2 474
e 2 478
e 2 483
e 2 532
e 2 586
e 2 616
e 2 636
e 2 637
e 2 654
e 2 671
e 2 770
e 2 856
e 2 935
e 2 950
e 2 995
e 3 291
e 3 314
e 3 326
e 3 336
e 3 356
e 3 396
e 3 404
e 3 405
e 3 418
e 3 430
e 3 447
e 3 459
e 3 460
e 3 465
e 3 477
e 3 481
e 3 487
e 3 488
e 3 530
e 3 565
e 3 574
e 3 599
e 3 627
e 3 631
e 3 693
e 3 734
e 3 740
e 3 757
e 3 789
e 3 811
e 3 820
e 3 848
e 3 862
e 3 885
e 3 908
e 3 909
e 3 910
e 3 914
e 3 931
e 3 972
e 4 279
e 4 306
e 4 319
e 4 337
e 4 422
e 4 457
e 4 460
e 4 501
e 4 564
e 4 612
e 4 616
e 4 630
e 4 645
e 4 663
e 4 673
e 4 674
e 4 678
e 4 690
e 4 695
e 4 703
e 4 745
e 4 764
e 4 781
e 4 800
e 4 807
e 4 817
e 4 838
e 4 844
e 4 848
e 4 849
e 4 851
e 4 872
e 4 892
e 4 919
e 4 927
e 4 952
e 4 968
e 4 996
e 5 289
e 5 330
e 5 344
e 5 345
e 5 352
e 5 393
e 5 418
e 5 456
e 5 465
e 5 482
e 5 510
e 5 515
e 5 531
e 5 535
e 5 537
e 5 560
e 5 576
e 5 619
e 5 659
e 5 664
e 5 693
e 5 758
e 5 771
e 5 793
e 5 840
e 5 925
e 5 927
e 5 929
e 5 933
e 6 264
e 6 287
e 6 288
e 6 310
e 6 340
e 6 361
e 6 362
e 6 370
e 6 378
e 6 418
e 6 428
e 6 451
e 6 502
e 6 543
e 6 631
e 6 649
e 6 665
e 6 675
e 6 682
e 6 694
e 6 721
e 6 731
e 6 749
e 6 782
e 6 802
e 6 812
e 6 848
e 6 864
e 6 903
e 6 913
e 6 953
e 6 979
e 6 997
e 7 258
e 7 268
e 7 284
e 7 300
e 7 308
e 7 340
e 7 363
e 7 379
e 7 394
e 7 404
e 7 424
e 7 473
e 7 509
e 7 516
e 7 519
e 7 534
e 7 542
e 7 571
e 7 592
e 7 602
e 7 615
e 7 628
e 7 644
e 7 660
e 7 685
e 7 689
e 7 732
e 7 736
e 7 752
e 7 772
e 7 793
e 7 815
e 7 828
e 7 852
e 7 905
e 7 935
e 7 936
e 7 975
e 8 281
e 8 304
e 8 324
e 8 327
e 8 358
e 8 387
e 8 432
e 8 445
e 8 451
e 8 452
e 8 477
e 8 525
e 8 540
e 8 550
e 8 581
e 8 608
e 8 609
e 8 617
e 8 639
e 8 693
e 8 694
e 8 700
e 8 749
e 8 751
e 8 754
e 8 766
e 8 814
e 8 844
e 8 846
e 8 854
e 8 869
e 8 927
e 8 933
e 8 949
e 8 956
e 8 958
e 8 975
e 8 976
e 8 999
e 9 252
e 9 266
e 9 273
e 9 303
e 9 323
e 9 340
e 9 350
e 9 366
e 9 370
e 9 381
e 9 383
e 9 430
e 9 463
e 9 543
e 9 545
e 9 594
e 9 598
e 9 599
e 9 607
e 9 612
e 9 652
e 9 655
e 9 679
e 9 753
e 9 760
e 9 772
e 9 823
e 9 864
e 9 887
e 9 921
e 9 939
e 9 952
e 9 991
e 10 302
e 10 327
e 10 332
e 10 367
e 10 375
e 10 378
e 10 409
e 10 414
e 10 421
e 10 438
e 10 442
e 10 456
e 10 476
e 10 500
e 10 535
e 10 543
e 10 567
e 10 592
e 10 618
e 10 680
e 10 697
e 10 733
e 10 743
e 10 766
e 10 807
e 10 860
e 10 908
e 10 922
e 10 923
e 10 982
e 10 995
e 11 256
e 11 270
e 11 286
e 11 295
e 11 298
e 11 309
e 11 312
e 11 356
e 11 365
e 11 373
e 11 401
e 11 411
e 11 423
e 11 449
e 11 494
e 11 498
e 11 517
e 11 530
e 11 535
e 11 561
e 11 611
e 11 678
e 11 703
e 11 716
e 11 739
e 11 753
e 11 756
e 11 839
e 11 841
e 11 862
e 11 879
e 11 914
e 11 925
e 11 935
e 11 942
e 11 963
e 11 969
e 12 260
e 12 303
e 12 310
e 12 323
e 12 326
e 12 330
e 12 341
e 12 369
e 12 389
e 12 397
e 12 442
e 12 455
e 12 472
e 12 509
e 12 539
e 12 544
e 12 553
e 12 573
e 12 585
e 12 593
e 12 606
e 12 611
e 12 616
e 12 667
e 12 677
e 12 695
e 12 726
e 12 763
e 12 814
e 12 830
e 12 855
e 12 858
e 12 876
e 12 878
e 12 886
e 12 897
e 12 919
e 12 939
e 12 958
e 12 964
e 12 969
e 12 990
e 12 1000
e 13 269
e 13 308
e 13 317
e 13 331
e 13 332
e 13 336
e 13 348
e 13 355
e 13 362
e 13 398
e 13 428
e 13 442
e 13 449
e 13 460
e 13 503
e 13 585
e 13 605
e 13 607
e 13 614
e 13 646
e 13 647
e 13 721
e 13 748
e 13 822
e 13 855
e 13 876
e 13 943
e 13 970
e 13 976
e 13 984
e 14 259
e 14 273
e 14 286
e 14 328
e 14 337
e 14 343
e 14 344
e 14 350
e 14 365
e 14 377
e 14 388
e 14 413
e 14 438
e 14 458
e 14 480
e 14 500
e 14 512
e 14 519
e 14 534
e 14 562
e 14 580
e 14 663
e 14 671
e 14 700
e 14 856
e 14 860
e 14 872
e 14 874
e 14 926
e 14 933
e 14 959
e 14 979
e 14 994
e 15 260
e 15 285
e 15 313
e 15 318
e 15 383
e 15 423
e 15 489
e 15 491
e 15 499
e 15 500
e 15 502
e 15 515
e 15 537
e 15 567
e 15 581
e 15 652
e 15 734
e 15 735
e 15 768
e 15 775
e 15 789
e 15 832
e 15 862
e 15 884
e 15 893
e 15 897
e 15 900
e 15 908
e 15 918
e 15 956
e 15 979
e 15 994
e 16 262
e 16 334
e 16 351
e 16 389
e 16 406
e 16 411
e 16 415
e 16 513
e 16 609
e 16 623
e 16 680
e 16 684
e 16 712
e 16 734
e 16 745
e 16 778
e 16 802
e 16 813
e 16 827
e 16 842
e 16 849
e 16 854
e 16 870
e 16 965
e 16 978
e 16 981
e 17 255
e 17 300
e 17 333
e 17 334
e 17 354
e 17 400
e 17 401
e 17 411
e 17 417
e 17 433
e 17 474
e 17 505
e 17 520
e 17 548
e 17 555
e 17 568
e 17 576
e 17 630
e 17 680
e 17 716
e 17 743
e 17 752
e 17 774
e 17 775
e 17 798
e 17 809
e 17 811
e 17 859
e 17 902
e 17 912
e 17 933
e 17 957
e 17 960
e 18 259
e 18 261
e 18 262
e 18 280
e 18 305
e 18 312
e 18 347
e 18 365
e 18 441
e 18 484
e 18 492
e 18 528
e 18 531
e 18 534
e 18 554
e 18 561
e 18 585
e 18 626
e 18 642
e 18 647
e 18 653
e 18 697
e 18 765
e 18 780
e 18 787
e 18 793
e 18 796
e 18 827
e 18 848
e 18 849
e 18 860
e 18 869
e 18 915
e 18 930
e 18 993
e 18 996
e 19 257
e 19 304
e 19 308
e 19 334
e 19 375
e 19 391
e 19 411
e 19 418
e 19 435
e 19 473
e 19 480
e 19 497
e 19 512
e 19 525
e 19 559
e 19 577
e 19 618
e 19 656
e 19 678
e 19 681
e 19 700
e 19 728
e 19 751
e 19 760
e 19 809
e 19 810
e 19 846
e 19 873
e 19 876
e 19 910
e 19 921
e 19 925
e 19 928
e 19 957
e 20 252
e 20 284
e 20 291
e 20 292
e 20 301
e 20 321
e 20 336
e 20 375
e 20 386
e 20 414
e 20 422
e 20 424
e 20 438
e 20 477
e 20 483
e 20 533
e 20 565
e 20 585
e 20 611
e 20 646
e 20 670
e 20 674
e 20 684
e 20 691
e 20 715
e 20 718
e 20 723
e 20 729
e 20 736
e 20 737
e 20 749
e 20 761
e 20 764
e 20 766
e 20 776
e 20 790
e 20 842
e 20 853
e 20 864
e 20 868
e 20 882
e 20 908
e 20 919
e 20 931
e 20 941
e 20 943
e 20 948
e 20 989
e 20 991
e 21 258
e 21 276
e 21 322
e 21 329
e 21 369
e 21 374
e 21 390
e 21 414
e 21 423
e 21 425
e 21 439
e 21 440
e 21 500
e 21 513
e 21 535
e 21 548
e 21 550
e 21 553
e 21 559
e 21 566
e 21 589
e 21 598
e 21 603
e 21 604
e 21 620
e 21 622
e 21 681
e 21 682
e 21 685
e 21 702
e 21 730
e 21 809
e 21 814
e 21 861
e 21 932
e 22 279
e 22 284
e 22 289
e 22 305
e 22 308
e 22 319
e 22 323
e 22 327
e 22 354
e 22 369
e 22 387
e 22 412
e 22 433
e 22 486
e 22 504
e 22 509
e 22 513
e 22 561
e 22 605
e 22 615
e 22 616
e 22 651
e 22 666
e 22 684
e 22 692
e 22 712
e 22 729
e 22 764
e 22 811
e 22 821
e 22 832
e 22 836
e 22 844
e 22 859
e 22 870
e 22 876
e 22 882
e 22 905
e 22 908
e 22 909
e 22 942
e 22 948
e 22 965
e 23 274
e 23 280
e 23 299
e 23 304
e 23 322
e 23 329
e 23 368
e 23 381
e 23 386
e 23 405
e 23 417
e 23 441
e 23 474
e 23 553
e 23 556
e 23 563
e 23 581
e 23 589
e 23 597
e 23 660
e 23 662
e 23 721
e 23 742
e 23 754
e 23 757
e 23 764
e 23 765
e 23 789
e 23 791
e 23 843
e 23 866
e 23 870
e 23 897
e 23 901
e 23 905
e 23 948
e 24 288
e 24 305
e 24 309
e 24 346
e 24 347
e 24 360
e 24 368
e 24 394
e 24 401
e 24 403
e 24 418
e 24 440
e 24 451
e 24 473
e 24 487
e 24 498
e 24 502
e 24 513
e 24 540
e 24 575
e 24 593
e 24 596
e 24 597
e 24 673
e 24 687
e 24 691
e 24 711
e 24 723
e 24 734
e 24 736
e 24 761
e 24 772
e 24 797
e 24 832
e 24 841
e 24 847
e 24 849
e 24 854
e 24 866
e 24 906
e 24 927
e 24 936
e 24 944
e 24 966
e 24 998
e 25 251
e 25 253
e 25 255
e 25 280
e 25 296
e 25 338
e 25 375
e 25 405
e 25 408
e 25 441
e 25 448
e 25 465
e 25 535
e 25 595
e 25 596
e 25 597
e 25 606
e 25 610
e 25 623
e 25 648
e 25 651
e 25 686
e 25 718
e 25 752
e 25 755
e 25 769
e 25 774
e 25 780
e 25 808
e 25 814
e 25 825
e 25 830
e 25 831
e 25 853
e 25 859
e 25 935
e 25 936
e 25 942
e 25 963
e 26 252
e 26 263
e 26 298
e 26 357
e 26 381
e 26 388
e 26 454
e 26 501
e 26 536
e 26 543
e 26 546
e 26 553
e 26 569
e 26 570
e 26 579
e 26 596
e 26 604
e 26 636
e 26 658
e 26 662
e 26 670
e 26 671
e 26 727
e 26 737
e 26 739
e 26 758
e 26 813
e 26 855
e 26 877
e 26 884
e 26 918
e 26 966
e 26 976
e 26 984
e 26 987
e 26 991
e 27 251
e 27 293
e 27 309
e 27 337
e 27 344
e 27 359
e 27 375
e 27 403
e 27 405
e 27 408
e 27 428
e 27 444
e 27 497
e 27 498
e 27 505
e 27 515
e 27 621
e 27 662
e 27 677
e 27 685
e 27 718
e 27 751
e 27 754
e 27 765
e 27 791
e 27 827
e 27 849
e 27 875
e 27 876
e 27 910
e 27 937
e 27 941
e 27 980
e 27 991
e 28 277
e 28 332
e 28 341
e 28 363
e 28 369
e 28 373
e 28 385
e 28 390
e 28 392
e 28 478
e 28 490
e 28 531
e 28 549
e 28 570
e 28 580
e 28 604
e 28 621
e 28 623
e 28 636
e 28 674
e 28 709
e 28 713
e 28 717
e 28 729
e 28 749
e 28 750
e 28 764
e 28 816
e 28 855
e 28 870
e 28 897
e 28 901
e 28 940
e 28 961
e 28 981
e 28 999
e 29 258
e 29 312
e 29 315
e 29 325
e 29 369
e 29 374
e 29 378
e 29 392
e 29 396
e 29 400
e 29 427
e 29 432
e 29 447
e 29 487
e 29 528
e 29 540
e 29 549
e 29 559
e 29 573
e 29 576
e 29 590
e 29 600
e 29 607
e 29 623
e 29 636
e 29 653
e 29 688
e 29 703
e 29 740
e 29 761
e 29 773
e 29 777
e 29 785
e 29 806
e 29 820
e 29 877
e 29 960
e 30 268
e 30 308
e 30 316
e 30 398
e 30 406
e 30 414
e 30 429
e 30 481
e 30 500
e 30 513
e 30 535
e 30 558
e 30 574
e 30 575
e 30 604
e 30 613
e 30 642
e 30 692
e 30 715
e 30 719
e 30 730
e 30 736
e 30 772
e 30 783
e 30 800
e 30 807
e 30 878
e 30 932
e 30 941
e 30 981
e 30 988
e 30 992
e 31 259
e 31 273
e 31 275
e 31 295
e 31 296
e 31 297
e 31 321
e 31 394
e 31 402
e 31 419
e 31 423
e 31 446
e 31 469
e 31 477
e 31 491
e 31 502
e 31 540
e 31 542
e 31 553
e 31 569
e 31 615
e 31 628
e 31 662
e 31 713
e 31 758
e 31 784
e 31 860
e 31 878
e 31 890
e 31 986
e 31 997
e 32 275
e 32 306
e 32 308
e 32 310
e 32 317
e 32 369
e 32 394
e 32 444
e 32 451
e 32 474
e 32 480
e 32 500
e 32 533
e 32 534
e 32 547
e 32 588
e 32 626
e 32 646
e 32 652
e 32 655
e 32 672
e 32 779
e 32 788
e 32 796
e 32 811
e 32 854
e 32 864
e 32 873
e 32 884
e 32 901
e 32 939
e 32 943
e 32 972
e 32 973
e 32 977
e 32 991
e 33 279
e 33 334
e 33 356
e 33 420
e 33 441
e 33 442
e 33 496
e 33 511
e 33 528
e 33 563
e 33 595
e 33 599
e 33 606
e 33 646
e 33 649
e 33 661
e 33 672
e 33 687
e 33 691
e 33 759
e 33 783
e 33 792
e 33 796
e 33 808
e 33 836
e 33 865
e 33 872
e 33 883
e 33 885
e 33 890
e 33 902
e 33 968
e 33 982
e 33 986
e 34 254
e 34 273
e 34 433
e 34 440
e 34 463
e 34 500
e 34 513
e 34 536
e 34 544
e 34 554
e 34 555
e 34 575
e 34 579
e 34 604
e 34 667
e 34 693
e 34 725
e 34 778
e 34 800
e 34 824
e 34 839
e 34 848
e 34 867
e 34 999
e 35 255
e 35 268
e 35 323
e 35 372
e 35 376
e 35 382
e 35 396
e 35 405
e 35 441
e 35 467
e 35 471
e 35 474
e 35 480
e 35 482
e 35 495
e 35 550
e 35 575
e 35 620
e 35 651
e 35 662
e 35 667
e 35 742
e 35 762
e 35 807
e 35 818
e 35 833
e 35 852
e 35 856
e 35 883
e 35 886
e 35 976
e 35 993
e 36 314
e 36 326
e 36 336
e 36 360
e 36 382
e 36 384
e 36 427
e 36 444
e 36 454
e 36 476
e 36 518
e 36 568
e 36 576
e 36 615
e 36 624
e 36 645
e 36 679
e 36 691
e 36 696
e 36 698
e 36 718
e 36 725
e 36 779
e 36 818
e 36 840
e 36 861
e 36 910
e 36 924
e 36 929
e 36 936
e 36 960
e 36 969
e 36 994
e 37 254
e 37 271
e 37 284
e 37 300
e 37 316
e 37 326
e 37 328
e 37 405
e 37 455
e 37 484
e 37 500
e 37 513
e 37 521
e 37 555
e 37 575
e 37 595
e 37 599
e 37 612
e 37 633
e 37 652
e 37 672
e 37 697
e 37 714
e 37 723
e 37 759
e 37 774
e 37 788
e 37 841
e 37 850
e 37 864
e 37 906
e 37 907
e 37 939
e 37 950
e 37 976
e 38 271
e 38 294
e 38 298
e 38 300
e 38 345
e 38 348
e 38 431
e 38 475
e 38 528
e 38 547
e 38 548
e 38 559
e 38 579
e 38 585
e 38 593
e 38 614
e 38 656
e 38 678
e 38 686
e 38 689
e 38 703
e 38 745
e 38 750
e 38 759
e 38 788
e 38 795
e 38 808
e 38 813
e 38 814
e 38 836
e 38 856
e 38 884
e 38 886
e 38 897
e 38 910
e 38 931
e 38 953
e 39 292
e 39 311
e 39 316
e 39 329
e 39 341
e 39 344
e 39 402
e 39 403
e 39 406
e 39 423
e 39 425
e 39 488
e 39 508
e 39 514
e 39 515
e 39 528
e 39 570
e 39 589
e 39 593
e 39 612
e 39 660
e 39 661
e 39 689
e 39 701
e 39 710
e 39 712
e 39 751
e 39 762
e 39 772
e 39 773
e 39 779
e 39 816
e 39 863
e 39 873
e 39 899
e 39 909
e 39 910
e 39 929
e 39 959
e 39 990
e 39 994
e 40 257
e 40 260
e 40 288
e 40 319
e 40 345
e 40 360
e 40 403
e 40 418
e 40 458
e 40 475
e 40 492
e 40 510
e 40 544
e 40 569
e 40 593
e 40 595
e 40 603
e 40 696
e 40 711
e 40 719
e 40 724
e 40 756
e 40 776
e 40 781
e 40 792
e 40 799
e 40 812
e 40 848
e 40 856
e 40 872
e 40 892
e 40 899
e 40 933
e 40 935
e 40 937
e 40 954
e 40 960
e 40 975
e 40 980
e 40 984
e 40 997
e 41 257
e 41 260
e 41 272
e 41 288
e 41 293
e 41 296
e 41 323
e 41 341
e 41 348
e 41 372
e 41 374
e 41 402
e 41 412
e 41 433
e 41 434
e 41 449
e 41 474
e 41 568
e 41 618
e 41 631
e 41 632
e 41 642
e 41 648
e 41 672
e 41 683
e 41 689
e 41 768
e 41 799
e 41 803
e 41 846
e 41 867
e 41 876
e 41 878
e 41 879
e 41 885
e 41 897
e 41 901
e 41 902
e 41 907
e 41 943
e 41 957
e 41 989
e 42 310
e 42 323
e 42 324
e 42 338
e 42 459
e 42 513
e 42 519
e 42 523
e 42 555
e 42 581
e 42 598
e 42 599
e 42 610
e 42 631
e 42 642
e 42 652
e 42 662
e 42 689
e 42 758
e 42 762
e 42 764
e 42 777
e 42 786
e 42 805
e 42 820
e 42 845
e 42 899
e 42 902
e 42 913
e 42 957
e 42 978
e 42 980
e 42 984
e 42 988
e 43 251
e 43 252
e 43 299
e 43 315
e 43 336
e 43 352
e 43 358
e 43 360
e 43 361
e 43 436
e 43 516
e 43 550
e 43 553
e 43 570
e 43 582
e 43 609
e 43 642
e 43 652
e 43 657
e 43 671
e 43 679
e 43 740
e 43 794
e 43 798
e 43 810
e 43 812
e 43 813
e 43 852
e 43 854
e 43 888
e 43 890
e 43 895
e 43 912
e 43 933
e 43 935
e 43 940
e 44 314
e 44 323
e 44 332
e 44 355
e 44 386
e 44 407
e 44 483
e 44 505
e 44 699
e 44 713
e 44 750
e 44 784
e 44 807
e 44 808
e 44 866
e 44 896
e 44 907
e 44 923
e 44 941
e 44 952
e 44 988
e 45 257
e 45 289
e 45 316
e 45 371
e 45 406
e 45 474
e 45 478
e 45 501
e 45 505
e 45 530
e 45 580
e 45 591
e 45 601
e 45 603
e 45 609
e 45 617
e 45 618
e 45 624
e 45 641
e 45 646
e 45 655
e 45 674
e 45 679
e 45 686
e 45 693
e 45 702
e 45 720
e 45 721
e 45 730
e 45 784
e 45 800
e 45 804
e 45 814
e 45 816
e 45 850
e 45 882
e 45 907
e 45 939
e 45 971
e 45 975
e 45 999
e 46 276
e 46 289
e 46 302
e 46 321
e 46 329
e 46 330
e 46 386
e 46 410
e 46 434
e 46 443
e 46 455
e 46 460
e 46 493
e 46 512
e 46 517
e 46 567
e 46 596
e 46 635
e 46 672
e 46 684
e 46 701
e 46 724
e 46 744
e 46 748
e 46 785
e 46 787
e 46 793
e 46 808
e 46 825
e 46 827
e 46 880
e 46 891
e 46 904
e 46 912
e 46 976
e 46 985
e 47 271
e 47 300
e 47 329
e 47 349
e 47 367
e 47 370
e 47 378
e 47 391
e 47 393
e 47 403
e 47 407
e 47 424
e 47 436
e 47 466
e 47 474
e 47 480
e 47 536
e 47 555
e 47 561
e 47 573
e 47 605
e 47 617
e 47 641
e 47 650
e 47 659
e 47 698
e 47 717
e 47 724
e 47 731
e 47 761
e 47 771
e 47 773
e 47 808
e 47 818
e 47 910
e 47 951
e 47 997
e 47 1000
e 48 276
e 48 334
e 48 345
e 48 347
e 48 355
e 48 384
e 48 399
e 48 403
e 48 409
e 48 419
e 48 424
e 48 462
e 48 475
e 48 540
e 48 551
e 48 580
e 48 631
e 48 634
e 48 647
e 48 668
e 48 685
e 48 694
e 48 706
e 48 708
e 48 776
e 48 807
e 48 825
e 48 837
e 48 849
e 48 887
e 48 983
e 49 280
e 49 289
e 49 306
e 49 343
e 49 349
e 49 350
e 49 354
e 49 454
e 49 457
e 49 458
e 49 466
e 49 473
e 49 481
e 49 535
e 49 551
e 49 558
e 49 577
e 49 579
e 49 581
e 49 663
e 49 664
e 49 668
e 49 672
e 49 702
e 49 710
e 49 713
e 49 757
e 49 788
e 49 795
e 49 799
e 49 851
e 49 855
e 49 856
e 49 897
e 49 920
e 50 254
e 50 263
e 50 264
e 50 268
e 50 328
e 50 339
e 50 405
e 50 419
e 50 430
e 50 472
e 50 519
e 50 540
e 50 569
e 50 572
e 50 582
e 50 607
e 50 646
e 50 687
e 50 695
e 50 700
e 50 712
e 50 725
e 50 773
e 50 792
e 50 803
e 50 807
e 50 810
e 50 816
e 50 821
e 50 858
e 50 860
e 50 863
e 50 884
e 50 900
e 50 902
e 50 947
e 50 965
e 50 971
e 51 263
e 51 274
e 51 420
e 51 440
e 51 443
e 51 470
e 51 500
e 51 552
e 51 558
e 51 651
e 51 681
e 51 691
e 51 697
e 51 701
e 51 718
e 51 730
e 51 745
e 51 752
e 51 753
e 51 754
e 51 798
e 51 812
e 51 817
e 51 841
e 51 849
e 51 889
e 51 907
e 51 948
e 51 991
e 51 994
e 51 1000
e 52 289
e 52 299
e 52 300
e 52 354
e 52 365
e 52 368
e 52 373
e 52 374
e 52 398
e 52 401
e 52 410
e 52 456
e 52 473
e 52 486
e 52 511
e 52 549
e 52 552
e 52 553
e 52 591
e 52 600
e 52 627
e 52 658
e 52 673
e 52 677
e 52 707
e 52 713
e 52 719
e 52 736
e 52 813
e 52 846
e 52 850
e 52 860
e 52 866
e 52 921
e 52 964
e 53 290
e 53 368
e 53 391
e 53 410
e 53 432
e 53 448
e 53 467
e 53 469
e 53 482
e 53 494
e 53 512
e 53 519
e 53 547
e 53 551
e 53 567
e 53 569
e 53 596
e 53 634
e 53 640
e 53 708
e 53 709
e 53 769
e 53 773
e 53 815
e 53 863
e 53 871
e 53 901
e 53 917
e 53 944
e 53 966
e 53 970
e 53 994
e 54 253
e 54 301
e 54 311
e 54 368
e 54 369
e 54 375
e 54 380
e 54 382
e 54 385
e 54 392
e 54 436
e 54 448
e 54 486
e 54 501
e 54 510
e 54 524
e 54 533
e 54 538
e 54 555
e 54 564
e 54 581
e 54 607
e 54 615
e 54 634
e 54 658
e 54 678
e 54 684
e 54 691
e 54 698
e 54 727
e 54 731
e 54 739
e 54 793
e 54 954
e 54 970
e 54 973
e 55 266
e 55 269
e 55 299
e 55 311
e 55 324
e 55 341
e 55 364
e 55 393
e 55 396
e 55 402
e 55 404
e 55 420
e 55 424
e 55 427
e 55 432
e 55 446
e 55 462
e 55 474
e 55 533
e 55 537
e 55 556
e 55 562
e 55 600
e 55 638
e 55 644
e 55 665
e 55 673
e 55 675
e 55 680
e 55 682
e 55 734
e 55 754
e 55 764
e 55 843
e 55 861
e 55 875
e 55 886
e 55 902
e 55 906
e 55 918
e 55 929
e 55 982
e 56 270
e 56 279
e 56 318
e 56 353
e 56 377
e 56 402
e 56 452
e 56 461
e 56 476
e 56 487
e 56 500
e 56 516
e 56 543
e 56 552
e 56 553
e 56 568
e 56 572
e 56 587
e 56 618
e 56 679
e 56 681
e 56 709
e 56 737
e 56 744
e 56 775
e 56 777
e 56 779
e 56 782
e 56 792
e 56 804
e 56 861
e 56 909
e 56 923
e 56 950
e 56 971
e 56 995
e 57 273
e 57 274
e 57 340
e 57 429
e 57 463
e 57 478
e 57 491
e 57 493
e 57 521
e 57 570
e 57 595
e 57 615
e 57 684
e 57 685
e 57 688
e 57 694
e 57 703
e 57 718
e 57 728
e 57 731
e 57 734
e 57 742
e 57 760
e 57 826
e 57 854
e 57 871
e 57 893
e 57 904
e 57 906
e 57 914
e 57 919
e 57 926
e 57 965
e 57 966
e 57 969
e 57 975
e 57 986
e 57 989
e 58 253
e 58 259
e 58 272
e 58 356
e 58 396
e 58 406
e 58 417
e 58 422
e 58 434
e 58 455
e 58 458
e 58 497
e 58 520
e 58 529
e 58 532
e 58 544
e 58 577
e 58 579
e 58 580
e 58 634
e 58 641
e 58 684
e 58 685
e 58 712
e 58 714
e 58 725
e 58 749
e 58 796
e 58 815
e 58 832
e 58 862
e 58 897
e 58 900
e 58 903
e 58 916
e 58 965
e 58 970
e 59 272
e 59 277
e 59 281
e 59 286
e 59 290
e 59 295
e 59 312
e 59 319
e 59 324
e 59 350
e 59 433
e 59 467
e 59 507
e 59 545
e 59 584
e 59 587
e 59 607
e 59 616
e 59 640
e 59 641
e 59 642
e 59 650
e 59 733
e 59 763
e 59 776
e 59 777
e 59 816
e 59 823
e 59 841
e 59 891
e 59 917
e 59 933
e 59 955
e 59 983
e 59 987
e 59 993
e 59 995
e 60 258
e 60 271
e 60 296
e 60 311
e 60 333
e 60 345
e 60 380
e 60 402
e 60 440
e 60 457
e 60 470
e 60 480
e 60 481
e 60 489
e 60 498
e 60 560
e 60 586
e 60 606
e 60 617
e 60 625
e 60 641
e 60 651
e 60 683
e 60 715
e 60 751
e 60 778
e 60 781
e 60 786
e 60 821
e 60 829
e 60 832
e 60 851
e 60 856
e 60 861
e 60 889
e 60 918
e 60 949
e 60 963
e 60 973
e 60 983
e 61 266
e 61 355
e 61 404
e 61 423
e 61 453
e 61 502
e 61 508
e 61 515
e 61 530
e 61 531
e 61 553
e 61 562
e 61 623
e 61 638
e 61 648
e 61 652
e 61 673
e 61 675
e 61 677
e 61 707
e 61 709
e 61 712
e 61 729
e 61 765
e 61 826
e 61 827
e 61 840
e 61 883
e 61 892
e 61 910
e 61 942
e 61 945
e 61 954
e 61 958
e 61 967
e 61 969
e 61 978
e 61 991
e 61 997
e 62 267
e 62 294
e 62 309
e 62 336
e 62 363
e 62 428
e 62 437
e 62 464
e 62 465
e 62 485
e 62 497
e 62 502
e 62 525
e 62 527
e 62 556
e 62 584
e 62 594
e 62 597
e 62 617
e 62 637
e 62 650
e 62 668
e 62 692
e 62 728
e 62 747
e 62 769
e 62 771
e 62 793
e 62 797
e 62 806
e 62 816
e 62 830
e 62 840
e 62 858
e 62 868
e 62 874
e 62 886
e 62 895
e 62 918
e 62 919
e 62 925
e 62 932
e 62 934
e 62 938
e 62 952
e 62 957
e 62 982
e 63 259
e 63 285
e 63 301
e 63 339
e 63 369
e 63 370
e 63 408
e 63 424
e 63 466
e 63 467
e 63 506
e 63 509
e 63 525
e 63 528
e 63 535
e 63 538
e 63 557
e 63 565
e 63 566
e 63 578
e 63 581
e 63 588
e 63 590
e 63 600
e 63 639
e 63 646
e 63 654
e 63 664
e 63 665
e 63 683
e 63 704
e 63 707
e 63 723
e 63 748
e 63 754
e 63 766
e 63 782
e 63 811
e 63 813
e 63 826
e 63 845
e 63 881
e 63 892
e 63 893
e 63 910
e 63 943
e 63 958
e 64 252
e 64 288
e 64 291
e 64 304
e 64 309
e 64 341
e 64 389
e 64 461
e 64 503
e 64 536
e 64 542
e 64 549
e 64 594
e 64 606
e 64 630
e 64 660
e 64 674
e 64 683
e 64 688
e 64 706
e 64 720
e 64 765
e 64 821
e 64 826
e 64 860
e 64 912
e 64 913
e 64 940
e 64 956
e 64 982
e 65 263
e 65 274
e 65 279
e 65 325
e 65 331
e 65 343
e 65 356
e 65 410
e 65 448
e 65 456
e 65 520
e 65 527
e 65 538
e 65 540
e 65 593
e 65 606
e 65 622
e 65 623
e 65 659
e 65 666
e 65 673
e 65 695
e 65 696
e 65 707
e 65 750
e 65 766
e 65 778
e 65 782
e 65 791
e 65 837
e 65 867
e 65 908
e 65 913
e 65 923
e 65 962
e 65 967
e 65 985
e 65 989
e 66 262
e 66 277
e 66 293
e 66 304
e 66 327
e 66 352
e 66 370
e 66 381
e 66 391
e 66 407
e 66 414
e 66 433
e 66 435
e 66 465
e 66 473
e 66 492
e 66 493
e 66 495
e 66 499
e 66 504
e 66 507
e 66 537
e 66 549
e 66 603
e 66 620
e 66 676
e 66 685
e 66 710
e 66 733
e 66 781
e 66 794
e 66 825
e 66 870
e 66 877
e 66 900
e 66 907
e 66 912
e 66 924
e 66 944
e 66 966
e 66 967
e 66 979
e 67 266
e 67 269
e 67 272
e 67 277
e 67 278
e 67 282
e 67 294
e 67 342
e 67 351
e 67 354
e 67 378
e 67 409
e 67 428
e 67 443
e 67 453
e 67 455
e 67 463
e 67 524
e 67 527
e 67 534
e 67 541
e 67 553
e 67 563
e 67 569
e 67 588
e 67 614
e 67 632
e 67 636
e 67 645
e 67 660
e 67 681
e 67 695
e 67 763
e 67 806
e 67 812
e 67 828
e 67 835
e 67 843
e 67 846
e 67 871
e 67 885
e 67 917
e 67 918
e 67 998
e 68 281
e 68 299
e 68 334
e 68 341
e 68 354
e 68 428
e 68 437
e 68 441
e 68 442
e 68 449
e 68 462
e 68 467
e 68 492
e 68 512
e 68 575
e 68 579
e 68 598
e 68 605
e 68 607
e 68 609
e 68 613
e 68 629
e 68 636
e 68 644
e 68 646
e 68 666
e 68 680
e 68 688
e 68 701
e 68 845
e 68 846
e 68 847
e 68 865
e 68 945
e 68 946
e 68 968
e 68 1000
e 69 276
e 69 278
e 69 281
e 69 318
e 69 322
e 69 323
e 69 361
e 69 423
e 69 444
e 69 477
e 69 515
e 69 551
e 69 564
e 69 571
e 69 581
e 69 589
e 69 610
e 69 648
e 69 672
e 69 679
e 69 681
e 69 702
e 69 710
e 69 754
e 69 763
e 69 805
e 69 844
e 69 855
e 69 908
e 69 916
e 69 926
e 69 955
e 69 960
e 69 977
e 69 980
e 70 285
e 70 286
e 70 293
e 70 346
e 70 347
e 70 353
e 70 354
e 70 362
e 70 375
e 70 399
e 70 404
e 70 405
e 70 414
e 70 429
e 70 443
e 70 452
e 70 462
e 70 466
e 70 500
e 70 512
e 70 531
e 70 534
e 70 545
e 70 575
e 70 597
e 70 619
e 70 620
e 70 624
e 70 639
e 70 659
e 70 661
e 70 692
e 70 751
e 70 773
e 70 836
e 70 846
e 70 891
e 70 895
e 70 913
e 70 929
e 70 975
e 70 981
e 70 996
e 71 256
e 71 257
e 71 260
e 71 289
e 71 292
e 71 325
e 71 333
e 71 339
e 71 348
e 71 387
e 71 399
e 71 418
e 71 432
e 71 440
e 71 449
e 71 457
e 71 460
e 71 544
e 71 593
e 71 602
e 71 646
e 71 668
e 71 679
e 71 731
e 71 756
e 71 802
e 71 868
e 71 887
e 71 893
e 71 899
e 71 916
e 71 919
e 71 932
e 71 962
e 71 965
e 71 992
e 72 266
e 72 273
e 72 298
e 72 307
e 72 316
e 72 348
e 72 361
e 72 372
e 72 383
e 72 386
e 72 391
e 72 393
e 72 401
e 72 425
e 72 449
e 72 490
e 72 498
e 72 502
e 72 528
e 72 556
e 72 575
e 72 593
e 72 594
e 72 598
e 72 605
e 72 684
e 72 701
e 72 706
e 72 710
e 72 767
e 72 778
e 72 790
e 72 808
e 72 842
e 72 861
e 72 865
e 72 875
e 72 882
e 72 916
e 72 953
e 72 996
e 73 253
e 73 256
e 73 273
e 73 303
e 73 306
e 73 311
e 73 327
e 73 364
e 73 390
e 73 428
e 73 439
e 73 454
e 73 472
e 73 479
e 73 520
e 73 538
e 73 554
e 73 565
e 73 566
e 73 572
e 73 613
e 73 624
e 73 629
e 73 649
e 73 653
e 73 730
e 73 741
e 73 754
e 73 841
e 73 849
e 73 851
e 73 866
e 73 877
e 73 894
e 73 896
e 73 914
e 73 922
e 73 944
e 73 948
e 73 949
e 73 969
e 73 970
e 73 985
e 74 262
e 74 309
e 74 335
e 74 350
e 74 444
e 74 466
e 74 489
e 74 547
e 74 548
e 74 576
e 74 597
e 74 598
e 74 610
e 74 611
e 74 626
e 74 640
e 74 642
e 74 648
e 74 675
e 74 696
e 74 699
e 74 757
e 74 774
e 74 808
e 74 820
e 74 840
e 74 845
e 74 850
e 74 890
e 74 902
e 74 903
e 74 919
e 74 958
e 74 964
e 74 996
e 75 277
e 75 306
e 75 328
e 75 331
e 75 332
e 75 333
e 75 343
e 75 385
e 75 410
e 75 416
e 75 436
e 75 459
e 75 467
e 75 497
e 75 511
e 75 515
e 75 523
e 75 524
e 75 538
e 75 547
e 75 549
e 75 606
e 75 648
e 75 662
e 75 666
e 75 667
e 75 668
e 75 695
e 75 707
e 75 717
e 75 736
e 75 744
e 75 777
e 75 844
e 75 847
e 75 879
e 75 897
e 75 934
e 75 951
e 75 958
e 75 964
e 76 265
e 76 269
e 76 299
e 76 307
e 76 321
e 76 380
e 76 396
e 76 420
e 76 423
e 76 443
e 76 538
e 76 574
e 76 581
e 76 584
e 76 617
e 76 629
e 76 649
e 76 658
e 76 664
e 76 686
e 76 694
e 76 714
e 76 725
e 76 734
e 76 778
e 76 795
e 76 796
e 76 800
e 76 811
e 76 813
e 76 823
e 76 860
e 76 867
e 76 889
e 76 901
e 76 905
e 76 992
e 77 252
e 77 255
e 77 261
e 77 304
e 77 312
e 77 327
e 77 334
e 77 370
e 77 374
e 77 389
e 77 418
e 77 422
e 77 432
e 77 445
e 77 462
e 77 475
e 77 476
e 77 486
e 77 508
e 77 511
e 77 540
e 77 554
e 77 581
e 77 589
e 77 600
e 77 632
e 77 633
e 77 650
e 77 668
e 77 691
e 77 705
e 77 725
e 77 780
e 77 802
e 77 811
e 77 837
e 77 841
e 77 856
e 77 877
e 77 910
e 77 918
e 77 924
e 77 937
e 78 305
e 78 320
e 78 329
e 78 339
e 78 405
e 78 449
e 78 452
e 78 471
e 78 519
e 78 524
e 78 538
e 78 545
e 78 557
e 78 565
e 78 575
e 78 603
e 78 608
e 78 641
e 78 656
e 78 659
e 78 687
e 78 699
e 78 765
e 78 797
e 78 808
e 78 830
e 78 855
e 78 857
e 78 863
e 78 869
e 78 891
e 78 893
e 78 898
e 78 920
e 78 933
e 78 936
e 78 980
e 78 982
e 78 988
e 78 992
e 79 259
e 79 289
e 79 308
e 79 353
e 79 360
e 79 405
e 79 416
e 79 418
e 79 441
e 79 446
e 79 493
e 79 503
e 79 545
e 79 548
e 79 571
e 79 572
e 79 574
e 79 603
e 79 633
e 79 656
e 79 662
e 79 668
e 79 687
e 79 692
e 79 703
e 79 710
e 79 750
e 79 810
e 79 849
e 79 859
e 79 867
e 79 897
e 79 924
e 79 930
e 79 932
e 79 958
e 79 963
e 79 986
e 80 278
e 80 280
e 80 298
e 80 324
e 80 325
e 80 337
e 80 351
e 80 355
e 80 356
e 80 391
e 80 398
e 80 405
e 80 411
e 80 416
e 80 437
e 80 439
e 80 458
e 80 473
e 80 523
e 80 547
e 80 580
e 80 657
e 80 698
e 80 734
e 80 746
e 80 749
e 80 755
e 80 759
e 80 764
e 80 787
e 80 834
e 80 873
e 80 874
e 80 878
e 80 935
e 80 948
e 80 960
e 80 988
e 80 991
e 80 993
e 81 251
e 81 280
e 81 282
e 81 286
e 81 305
e 81 312
e 81 327
e 81 333
e 81 351
e 81 362
e 81 407
e 81 416
e 81 455
e 81 469
e 81 489
e 81 511
e 81 532
e 81 598
e 81 604
e 81 638
e 81 654
e 81 681
e 81 715
e 81 740
e 81 748
e 81 749
e 81 751
e 81 779
e 81 788
e 81 826
e 81 836
e 81 840
e 81 860
e 81 867
e 81 921
e 81 922
e 81 928
e 81 992
e 82 253
e 82 258
e 82 262
e 82 263
e 82 273
e 82 277
e 82 295
e 82 311
e 82 318
e 82 329
e 82 335
e 82 348
e 82 392
e 82 453
e 82 508
e 82 538
e 82 544
e 82 555
e 82 564
e 82 571
e 82 573
e 82 578
e 82 602
e 82 611
e 82 628
e 82 629
e 82 640
e 82 644
e 82 675
e 82 676
e 82 696
e 82 699
e 82 722
e 82 728
e 82 748
e 82 793
e 82 803
e 82 853
e 82 872
e 82 904
e 82 933
e 82 978
e 83 262
e 83 285
e 83 297
e 83 348
e 83 349
e 83 351
e 83 355
e 83 373
e 83 390
e 83 401
e 83 420
e 83 422
e 83 423
e 83 425
e 83 434
e 83 437
e 83 466
e 83 516
e 83 535
e 83 536
e 83 567
e 83 577
e 83 596
e 83 611
e 83 648
e 83 737
e 83 772
e 83 775
e 83 797
e 83 837
e 83 863
e 83 892
e 83 907
e 83 934
e 83 935
e 83 965
e 83 989
e 83 996
e 83 1000
e 84 253
e 84 323
e 84 326
e 84 345
e 84 352
e 84 409
e 84 424
e 84 427
e 84 452
e 84 454
e 84 486
e 84 534
e 84 537
e 84 568
e 84 593
e 84 618
e 84 626
e 84 643
e 84 674
e 84 679
e 84 682
e 84 707
e 84 722
e 84 727
e 84 755
e 84 799
e 84 808
e 84 838
e 84 843
e 84 862
e 84 936
e 84 959
e 85 264
e 85 272
e 85 308
e 85 353
e 85 355
e 85 371
e 85 377
e 85 418
e 85 422
e 85 462
e 85 479
e 85 482
e 85 494
e 85 589
e 85 627
e 85 629
e 85 638
e 85 641
e 85 651
e 85 676
e 85 699
e 85 702
e 85 767
e 85 774
e 85 811
e 85 812
e 85 872
e 85 888
e 85 890
e 85 896
e 85 925
e 85 928
e 85 950
e 85 958
e 85 974
e 85 993
e 86 350
e 86 354
e 86 365
e 86 367
e 86 397
e 86 398
e 86 403
e 86 424
e 86 469
e 86 488
e 86 495
e 86 496
e 86 554
e 86 562
e 86 563
e 86 571
e 86 576
e 86 578
e 86 622
e 86 634
e 86 664
e 86 685
e 86 749
e 86 763
e 86 773
e 86 774
e 86 783
e 86 788
e 86 817
e 86 827
e 86 848
e 86 850
e 86 859
e 86 920
e 86 966
e 86 985
e 86 994
e 87 275
e 87 332
e 87 353
e 87 358
e 87 377
e 87 382
e 87 419
e 87 476
e 87 478
e 87 499
e 87 510
e 87 513
e 87 580
e 87 612
e 87 664
e 87 728
e 87 775
e 87 804
e 87 843
e 87 875
e 87 881
e 87 903
e 87 930
e 87 955
e 88 278
e 88 284
e 88 295
e 88 305
e 88 338
e 88 348
e 88 370
e 88 391
e 88 403
e 88 460
e 88 483
e 88 503
e 88 568
e 88 572
e 88 592
e 88 617
e 88 628
e 88 640
e 88 686
e 88 705
e 88 716
e 88 720
e 88 733
e 88 745
e 88 749
e 88 751
e 88 760
e 88 774
e 88 786
e 88 787
e 88 825
e 88 838
e 88 872
e 88 887
e 88 925
e 88 937
e 88 948
e 88 960
e 88 967
e 88 968
e 88 998
e 89 255
e 89 287
e 89 299
e 89 312
e 89 313
e 89 320
e 89 420
e 89 448
e 89 455
e 89 460
e 89 483
e 89 504
e 89 533
e 89 547
e 89 664
e 89 684
e 89 685
e 89 728
e 89 744
e 89 750
e 89 753
e 89 761
e 89 767
e 89 779
e 89 798
e 89 818
e 89 819
e 89 853
e 89 902
e 89 954
e 89 964
e 89 982
e 89 990
e 90 262
e 90 266
e 90 285
e 90 308
e 90 322
e 90 329
e 90 335
e 90 364
e 90 450
e 90 470
e 90 476
e 90 487
e 90 500
e 90 502
e 90 510
e 90 514
e 90 534
e 90 539
e 90 564
e 90 575
e 90 600
e 90 616
e 90 618
e 90 622
e 90 623
e 90 627
e 90 635
e 90 644
e 90 662
e 90 684
e 90 702
e 90 705
e 90 706
e 90 711
e 90 762
e 90 765
e 90 772
e 90 791
e 90 823
e 90 826
e 90 831
e 90 860
e 90 868
e 90 888
e 90 895
e 90 903
e 90 922
e 90 925
e 90 958
e 91 281
e 91 290
e 91 306
e 91 312
e 91 318
e 91 334
e 91 383
e 91 402
e 91 414
e 91 424
e 91 459
e 91 485
e 91 487
e 91 514
e 91 540
e 91 581
e 91 601
e 91 614
e 91 623
e 91 630
e 91 644
e 91 681
e 91 694
e 91 796
e 91 834
e 91 860
e 91 886
e 91 905
e 91 910
e 91 951
e 91 959
e 91 980
e 92 251
e 92 252
e 92 263
e 92 294
e 92 338
e 92 359
e 92 371
e 92 381
e 92 403
e 92 483
e 92 508
e 92 546
e 92 554
e 92 571
e 92 572
e 92 581
e 92 583
e 92 600
e 92 630
e 92 632
e 92 657
e 92 675
e 92 704
e 92 725
e 92 735
e 92 745
e 92 762
e 92 784
e 92 815
e 92 843
e 92 846
e 92 849
e 92 862
e 92 901
e 92 937
e 92 969
e 92 997
e 93 282
e 93 300
e 93 318
e 93 352
e 93 356
e 93 369
e 93 376
e 93 383
e 93 394
e 93 423
e 93 468
e 93 525
e 93 538
e 93 571
e 93 580
e 93 617
e 93 624
e 93 653
e 93 674
e 93 678
e 93 743
e 93 750
e 93 751
e 93 761
e 93 762
e 93 772
e 93 784
e 93 827
e 93 828
e 93 829
e 93 844
e 93 851
e 93 864
e 93 865
e 93 912
e 93 914
e 93 970
e 93 975
e 93 980
e 94 294
e 94 309
e 94 318
e 94 322
e 94 340
e 94 381
e 94 420
e 94 457
e 94 460
e 94 462
e 94 470
e 94 475
e 94 503
e 94 506
e 94 526
e 94 533
e 94 547
e 94 548
e 94 582
e 94 592
e 94 654
e 94 658
e 94 661
e 94 666
e 94 685
e 94 688
e 94 697
e 94 721
e 94 752
e 94 776
e 94 814
e 94 894
e 94 907
e 94 961
e 94 963
e 94 967
e 94 976
e 94 977
e 94 985
e 95 296
e 95 327
e 95 347
e 95 372
e 95 386
e 95 414
e 95 450
e 95 466
e 95 470
e 95 472
e 95 483
e 95 557
e 95 586
e 95 611
e 95 639
e 95 681
e 95 718
e 95 737
e 95 741
e 95 757
e 95 781
e 95 793
e 95 800
e 95 853
e 95 857
e 95 869
e 95 872
e 95 887
e 95 900
e 95 916
e 95 926
e 95 961
e 95 985
e 96 263
e 96 285
e 96 317
e 96 318
e 96 324
e 96 346
e 96 361
e 96 374
e 96 382
e 96 384
e 96 395
e 96 398
e 96 401
e 96 417
e 96 425
e 96 451
e 96 458
e 96 465
e 96 488
e 96 491
e 96 498
e 96 508
e 96 513
e 96 517
e 96 521
e 96 524
e 96 550
e 96 556
e 96 561
e 96 569
e 96 582
e 96 604
e 96 626
e 96 636
e 96 644
e 96 684
e 96 755
e 96 770
e 96 771
e 96 793
e 96 797
e 96 805
e 96 806
e 96 842
e 96 875
e 96 888
e 96 902
e 96 904
e 96 905
e 96 924
e 96 936
e 96 947
e 96 949
e 96 963
e 96 984
e 96 987
e 97 266
e 97 267
e 97 278
e 97 293
e 97 306
e 97 313
e 97 314
e 97 330
e 97 379
e 97 380
e 97 413
e 97 429
e 97 564
e 97 589
e 97 595
e 97 631
e 97 662
e 97 678
e 97 764
e 97 766
e 97 782
e 97 786
e 97 790
e 97 791
e 97 820
e 97 854
e 97 877
e 97 955
e 97 959
e 97 980
e 98 254
e 98 255
e 98 263
e 98 266
e 98 271
e 98 276
e 98 277
e 98 280
e 98 312
e 98 322
e 98 329
e 98 337
e 98 340
e 98 375
e 98 390
e 98 420
e 98 426
e 98 428
e 98 471
e 98 474
e 98 484
e 98 488
e 98 503
e 98 530
e 98 551
e 98 566
e 98 603
e 98 638
e 98 645
e 98 680
e 98 700
e 98 701
e 98 748
e 98 765
e 98 797
e 98 801
e 98 835
e 98 845
e 98 847
e 98 852
e 98 915
e 98 958
e 98 973
e 98 977
e 98 979
e 98 997
e 99 260
e 99 306
e 99 343
e 99 378
e 99 412
e 99 464
e 99 470
e 99 485
e 99 548
e 99 588
e 99 603
e 99 612
e 99 617
e 99 619
e 99 630
e 99 639
e 99 640
e 99 647
e 99 684
e 99 686
e 99 709
e 99 715
e 99 723
e 99 726
e 99 740
e 99 750
e 99 773
e 99 784
e 99 809
e 99 823
e 99 878
e 99 886
e 99 982
e 99 994
e 99 998
e 100 263
e 100 268
e 100 273
e 100 277
e 100 294
e 100 325
e 100 326
e 100 341
e 100 352
e 100 361
e 100 369
e 100 375
e 100 408
e 100 468
e 100 498
e 100 502
e 100 511
e 100 513
e 100 528
e 100 573
e 100 581
e 100 603
e 100 631
e 100 650
e 100 662
e 100 669
e 100 699
e 100 725
e 100 742
e 100 750
e 100 765
e 100 766
e 100 797
e 100 798
e 100 811
e 100 831
e 100 833
e 100 892
e 100 912
e 100 916
e 100 920
e 100 924
e 100 927
e 100 954
e 100 965
e 100 971
e 100 990
e 101 268
e 101 277
e 101 283
e 101 295
e 101 357
e 101 358
e 101 366
e 101 371
e 101 375
e 101 391
e 101 401
e 101 403
e 101 405
e 101 421
e 101 425
e 101 438
e 101 463
e 101 486
e 101 493
e 101 526
e 101 530
e 101 586
e 101 616
e 101 666
e 101 671
e 101 693
e 101 706
e 101 719
e 101 748
e 101 761
e 101 803
e 101 830
e 101 843
e 101 864
e 101 896
e 101 924
e 101 933
e 101 936
e 101 976
e 101 982
e 101 996
e 101 999
e 102 277
e 102 297
e 102 316
e 102 323
e 102 346
e 102 366
e 102 369
e 102 379
e 102 399
e 102 428
e 102 433
e 102 441
e 102 449
e 102 456
e 102 464
e 102 468
e 102 473
e 102 507
e 102 509
e 102 512
e 102 519
e 102 528
e 102 553
e 102 568
e 102 570
e 102 588
e 102 612
e 102 613
e 102 649
e 102 708
e 102 742
e 102 764
e 102 765
e 102 775
e 102 824
e 102 831
e 102 862
e 102 894
e 102 903
e 102 917
e 102 932
e 102 955
e 102 965
e 102 987
e 103 283
e 103 288
e 103 308
e 103 332
e 103 346
e 103 370
e 103 373
e 103 382
e 103 411
e 103 421
e 103 422
e 103 432
e 103 440
e 103 457
e 103 463
e 103 470
e 103 478
e 103 513
e 103 514
e 103 540
e 103 583
e 103 597
e 103 626
e 103 672
e 103 707
e 103 752
e 103 813
e 103 824
e 103 846
e 103 847
e 103 861
e 103 878
e 103 936
e 103 979
e 104 257
e 104 290
e 104 317
e 104 337
e 104 378
e 104 397
e 104 399
e 104 431
e 104 440
e 104 450
e 104 451
e 104 466
e 104 477
e 104 491
e 104 528
e 104 530
e 104 539
e 104 543
e 104 547
e 104 548
e 104 564
e 104 601
e 104 618
e 104 629
e 104 637
e 104 639
e 104 641
e 104 658
e 104 686
e 104 704
e 104 752
e 104 754
e 104 781
e 104 830
e 104 844
e 104 859
e 104 893
e 104 978
e 104 993
e 105 252
e 105 263
e 105 265
e 105 334
e 105 406
e 105 440
e 105 445
e 105 450
e 105 453
e 105 464
e 105 476
e 105 478
e 105 504
e 105 545
e 105 577
e 105 603
e 105 619
e 105 625
e 105 629
e 105 643
e 105 657
e 105 680
e 105 745
e 105 769
e 105 771
e 105 773
e 105 786
e 105 807
e 105 810
e 105 843
e 105 855
e 105 886
e 105 913
e 105 918
e 105 937
e 106 252
e 106 274
e 106 291
e 106 347
e 106 402
e 106 408
e 106 412
e 106 425
e 106 433
e 106 507
e 106 525
e 106 527
e 106 545
e 106 576
e 106 579
e 106 583
e 106 596
e 106 626
e 106 650
e 106 683
e 106 686
e 106 694
e 106 710
e 106 716
e 106 734
e 106 739
e 106 776
e 106 779
e 106 783
e 106 814
e 106 831
e 106 855
e 106 881
e 106 896
e 106 914
e 106 932
e 106 940
e 106 975
e 106 982
e 106 985
e 106 991
e 107 272
e 107 309
e 107 323
e 107 364
e 107 366
e 107 388
e 107 399
e 107 401
e 107 412
e 107 424
e 107 460
e 107 481
e 107 484
e 107 495
e 107 508
e 107 511
e 107 530
e 107 535
e 107 540
e 107 562
e 107 583
e 107 616
e 107 630
e 107 643
e 107 651
e 107 660
e 107 677
e 107 731
e 107 741
e 107 742
e 107 788
e 107 790
e 107 793
e 107 809
e 107 855
e 107 877
e 107 927
e 107 943
e 107 954
e 107 958
e 107 961
e 107 971
e 107 972
e 107 991
e 107 1000
e 108 331
e 108 409
e 108 410
e 108 469
e 108 536
e 108 563
e 108 571
e 108 585
e 108 615
e 108 617
e 108 658
e 108 660
e 108 663
e 108 675
e 108 710
e 108 717
e 108 722
e 108 739
e 108 761
e 108 764
e 108 773
e 108 809
e 108 840
e 108 846
e 108 910
e 108 925
e 108 963
e 108 986
e 108 1000
e 109 264
e 109 283
e 109 285
e 109 300
e 109 329
e 109 372
e 109 423
e 109 454
e 109 488
e 109 524
e 109 570
e 109 575
e 109 603
e 109 640
e 109 687
e 109 718
e 109 742
e 109 761
e 109 812
e 109 844
e 109 847
e 109 855
e 109 869
e 109 877
e 109 883
e 109 886
e 109 891
e 109 896
e 109 902
e 109 950
e 109 1000
e 110 260
e 110 266
e 110 269
e 110 274
e 110 278
e 110 289
e 110 308
e 110 327
e 110 329
e 110 357
e 110 367
e 110 370
e 110 379
e 110 399
e 110 448
e 110 449
e 110 470
e 110 474
e 110 476
e 110 484
e 110 497
e 110 501
e 110 536
e 110 552
e 110 559
e 110 590
e 110 608
e 110 639
e 110 689
e 110 696
e 110 710
e 110 722
e 110 725
e 110 726
e 110 741
e 110 762
e 110 781
e 110 782
e 110 841
e 110 864
e 110 872
e 110 908
e 110 909
e 110 925
e 110 938
e 110 962
e 110 975
e 111 262
e 111 277
e 111 280
e 111 306
e 111 331
e 111 343
e 111 426
e 111 458
e 111 474
e 111 504
e 111 513
e 111 521
e 111 529
e 111 558
e 111 560
e 111 573
e 111 586
e 111 604
e 111 637
e 111 642
e 111 652
e 111 658
e 111 696
e 111 756
e 111 791
e 111 816
e 111 835
e 111 836
e 111 840
e 111 856
e 111 890
e 111 931
e 111 941
e 111 961
e 111 988
e 111 998
e 112 251
e 112 256
e 112 289
e 112 306
e 112 314
e 112 330
e 112 362
e 112 364
e 112 366
e 112 389
e 112 453
e 112 469
e 112 479
e 112 482
e 112 506
e 112 513
e 112 563
e 112 566
e 112 681
e 112 686
e 112 689
e 112 705
e 112 742
e 112 747
e 112 760
e 112 775
e 112 780
e 112 835
e 112 870
e 112 875
e 112 925
e 112 947
e 112 949
e 112 981
e 112 984
e 113 254
e 113 295
e 113 313
e 113 330
e 113 333
e 113 381
e 113 389
e 113 409
e 113 414
e 113 422
e 113 424
e 113 436
e 113 444
e 113 460
e 113 506
e 113 522
e 113 542
e 113 552
e 113 660
e 113 662
e 113 711
e 113 724
e 113 727
e 113 734
e 113 739
e 113 743
e 113 747
e 113 769
e 113 783
e 113 796
e 113 810
e 113 829
e 113 837
e 113 840
e 113 852
e 113 897
e 113 907
e 113 924
e 114 260
e 114 283
e 114 296
e 114 322
e 114 343
e 114 349
e 114 351
e 114 403
e 114 414
e 114 443
e 114 454
e 114 456
e 114 472
e 114 479
e 114 496
e 114 503
e 114 534
e 114 538
e 114 543
e 114 549
e 114 563
e 114 590
e 114 609
e 114 611
e 114 629
e 114 666
e 114 686
e 114 687
e 114 688
e 114 704
e 114 719
e 114 731
e 114 739
e 114 742
e 114 755
e 114 756
e 114 760
e 114 788
e 114 850
e 114 858
e 114 864
e 114 908
e 114 910
e 114 917
e 114 926
e 114 947
e 114 977
e 115 284
e 115 299
e 115 308
e 115 314
e 115 339
e 115 340
e 115 383
e 115 401
e 115 443
e 115 471
e 115 472
e 115 489
e 115 522
e 115 536
e 115 581
e 115 613
e 115 650
e 115 655
e 115 678
e 115 696
e 115 710
e 115 748
e 115 751
e 115 753
e 115 760
e 115 772
e 115 775
e 115 801
e 115 810
e 115 830
e 115 841
e 115 861
e 115 866
e 115 954
e 115 966
e 115 976
e 116 262
e 116 277
e 116 280
e 116 288
e 116 299
e 116 304
e 116 365
e 116 367
e 116 396
e 116 437
e 116 551
e 116 566
e 116 623
e 116 653
e 116 688
e 116 698
e 116 711
e 116 716
e 116 717
e 116 752
e 116 805
e 116 824
e 116 834
e 116 852
e 116 870
e 116 886
e 116 908
e 116 909
e 116 916
e 116 928
e 116 938
e 116 945
e 116 963
e 116 973
e 117 266
e 117 270
e 117 274
e 117 283
e 117 287
e 117 325
e 117 333
e 117 338
e 117 340
e 117 386
e 117 388
e 117 406
e 117 415
e 117 429
e 117 439
e 117 449
e 117 452
e 117 462
e 117 492
e 117 493
e 117 528
e 117 532
e 117 575
e 117 613
e 117 686
e 117 719
e 117 727
e 117 741
e 117 743
e 117 774
e 117 780
e 117 789
e 117 802
e 117 822
e 117 846
e 117 866
e 117 868
e 117 891
e 117 932
e 117 956
e 117 971
e 117 972
e 117 982
e 117 990
e 118 254
e 118 263
e 118 300
e 118 337
e 118 358
e 118 363
e 118 423
e 118 430
e 118 498
e 118 503
e 118 518
e 118 533
e 118 573
e 118 580
e 118 591
e 118 598
e 118 619
e 118 621
e 118 625
e 118 626
e 118 649
e 118 673
e 118 696
e 118 698
e 118 719
e 118 734
e 118 737
e 118 766
e 118 834
e 118 839
e 118 915
e 118 918
e 118 925
e 118 932
e 118 954
e 118 978
e 118 988
e 119 280
e 119 281
e 119 300
e 119 317
e 119 333
e 119 348
e 119 389
e 119 510
e 119 512
e 119 523
e 119 525
e 119 546
e 119 563
e 119 595
e 119 621
e 119 677
e 119 693
e 119 715
e 119 721
e 119 725
e 119 732
e 119 737
e 119 745
e 119 765
e 119 812
e 119 818
e 119 819
e 119 834
e 119 855
e 119 866
e 119 914
e 119 917
e 119 937
e 119 944
e 119 945
e 119 953
e 119 975
e 119 976
e 119 989
e 119 991
e 120 287
e 120 293
e 120 337
e 120 351
e 120 403
e 120 455
e 120 475
e 120 494
e 120 544
e 120 569
e 120 582
e 120 601
e 120 605
e 120 619
e 120 626
e 120 627
e 120 641
e 120 661
e 120 662
e 120 676
e 120 682
e 120 752
e 120 759
e 120 770
e 120 828
e 120 831
e 120 873
e 120 888
e 120 919
e 120 947
e 120 960
e 121 350
e 121 372
e 121 380
e 121 383
e 121 393
e 121 411
e 121 412
e 121 466
e 121 488
e 121 500
e 121 504
e 121 507
e 121 511
e 121 512
e 121 523
e 121 524
e 121 530
e 121 535
e 121 542
e 121 554
e 121 576
e 121 588
e 121 594
e 121 652
e 121 704
e 121 750
e 121 784
e 121 796
e 121 833
e 121 872
e 121 879
e 121 941
e 121 943
e 121 951
e 121 980
e 121 1000
e 122 290
e 122 293
e 122 294
e 122 296
e 122 316
e 122 371
e 122 382
e 122 489
e 122 490
e 122 491
e 122 521
e 122 529
e 122 542
e 122 549
e 122 592
e 122 593
e 122 628
e 122 647
e 122 661
e 122 678
e 122 685
e 122 714
e 122 715
e 122 716
e 122 717
e 122 724
e 122 741
e 122 782
e 122 803
e 122 805
e 122 812
e 122 829
e 122 845
e 122 910
e 122 924
e 122 944
e 122 947
e 122 958
e 122 965
e 122 988
e 123 265
e 123 269
e 123 281
e 123 301
e 123 323
e 123 324
e 123 332
e 123 344
e 123 375
e 123 395
e 123 402
e 123 420
e 123 436
e 123 453
e 123 455
e 123 465
e 123 468
e 123 481
e 123 482
e 123 485
e 123 487
e 123 500
e 123 504
e 123 507
e 123 516
e 123 517
e 123 542
e 123 560
e 123 587
e 123 608
e 123 635
e 123 664
e 123 691
e 123 698
e 123 717
e 123 786
e 123 797
e 123 805
e 123 816
e 123 854
e 123 871
e 123 908
e 123 915
e 123 946
e 123 960
e 123 961
e 123 977
e 124 303
e 124 341
e 124 342
e 124 353
e 124 355
e 124 375
e 124 378
e 124 383
e 124 425
e 124 433
e 124 444
e 124 510
e 124 528
e 124 553
e 124 554
e 124 595
e 124 643
e 124 666
e 124 674
e 124 696
e 124 719
e 124 747
e 124 757
e 124 770
e 124 809
e 124 872
e 124 879
e 124 894
e 124 907
e 124 910
e 124 928
e 124 954
e 124 955
e 124 966
e 125 257
e 125 269
e 125 300
e 125 309
e 125 312
e 125 335
e 125 348
e 125 357
e 125 367
e 125 369
e 125 387
e 125 420
e 125 469
e 125 471
e 125 481
e 125 507
e 125 527
e 125 562
e 125 596
e 125 616
e 125 622
e 125 628
e 125 645
e 125 650
e 125 665
e 125 756
e 125 775
e 125 790
e 125 813
e 125 844
e 125 853
e 125 891
e 125 895
e 125 900
e 125 910
e 125 920
e 125 933
e 125 967
e 125 968
e 125 987
e 126 273
e 126 278
e 126 289
e 126 308
e 126 324
e 126 332
e 126 347
e 126 427
e 126 438
e 126 440
e 126 443
e 126 444
e 126 451
e 126 480
e 126 513
e 126 547
e 126 548
e 126 571
e 126 574
e 126 598
e 126 627
e 126 635
e 126 644
e 126 674
e 126 684
e 126 690
e 126 718
e 126 733
e 126 747
e 126 758
e 126 783
e 126 800
e 126 807
e 126 818
e 126 825
e 126 826
e 126 827
e 126 834
e 126 855
e 126 861
e 126 862
e 126 885
e 126 908
e 126 918
e 126 926
e 126 932
e 126 957
e 126 966
e 126 975
e 126 986
e 127 252
e 127 288
e 127 295
e 127 301
e 127 327
e 127 343
e 127 346
e 127 449
e 127 507
e 127 542
e 127 549
e 127 564
e 127 586
e 127 608
e 127 611
e 127 621
e 127 638
e 127 642
e 127 671
e 127 770
e 127 786
e 127 807
e 127 834
e 127 842
e 127 849
e 127 883
e 127 887
e 127 892
e 127 929
e 127 982
e 128 251
e 128 262
e 128 265
e 128 277
e 128 295
e 128 317
e 128 337
e 128 344
e 128 355
e 128 358
e 128 365
e 128 453
e 128 489
e 128 501
e 128 511
e 128 539
e 128 542
e 128 556
e 128 577
e 128 595
e 128 629
e 128 630
e 128 658
e 128 701
e 128 718
e 128 749
e 128 750
e 128 763
e 128 803
e 128 807
e 128 809
e 128 826
e 128 841
e 128 849
e 128 852
e 128 857
e 128 877
e 128 898
e 128 900
e 128 911
e 128 921
e 129 255
e 129 291
e 129 293
e 129 299
e 129 309
e 129 431
e 129 450
e 129 457
e 129 468
e 129 504
e 129 507
e 129 520
e 129 526
e 129 530
e 129 537
e 129 553
e 129 554
e 129 584
e 129 598
e 129 652
e 129 690
e 129 697
e 129 703
e 129 712
e 129 739
e 129 745
e 129 759
e 129 809
e 129 833
e 129 834
e 129 837
e 129 844
e 129 900
e 129 915
e 129 937
e 129 939
e 129 958
e 130 277
e 130 284
e 130 287
e 130 292
e 130 347
e 130 385
e 130 423
e 130 438
e 130 439
e 130 448
e 130 480
e 130 484
e 130 490
e 130 595
e 130 633
e 130 647
e 130 701
e 130 717
e 130 727
e 130 728
e 130 739
e 130 750
e 130 757
e 130 759
e 130 764
e 130 786
e 130 791
e 130 792
e 130 809
e 130 811
e 130 819
e 130 838
e 130 856
e 130 878
e 130 899
e 130 944
e 131 289
e 131 307
e 131 325
e 131 349
e 131 372
e 131 396
e 131 406
e 131 419
e 131 439
e 131 459
e 131 463
e 131 467
e 131 488
e 131 527
e 131 596
e 131 603
e 131 672
e 131 675
e 131 689
e 131 706
e 131 719
e 131 726
e 131 733
e 131 744
e 131 752
e 131 817
e 131 890
e 131 900
e 131 911
e 131 928
e 131 930
e 131 935
e 131 937
e 131 962
e 131 975
e 131 991
e 132 282
e 132 287
e 132 315
e 132 322
e 132 341
e 132 347
e 132 357
e 132 363
e 132 383
e 132 385
e 132 387
e 132 390
e 132 399
e 132 424
e 132 446
e 132 504
e 132 528
e 132 557
e 132 561
e 132 569
e 132 583
e 132 590
e 132 601
e 132 609
e 132 629
e 132 721
e 132 736
e 132 772
e 132 811
e 132 812
e 132 813
e 132 825
e 132 844
e 132 850
e 132 875
e 132 904
e 132 923
e 133 276
e 133 289
e 133 299
e 133 303
e 133 370
e 133 384
e 133 393
e 133 412
e 133 418
e 133 423
e 133 511
e 133 548
e 133 556
e 133 558
e 133 569
e 133 575
e 133 602
e 133 613
e 133 614
e 133 620
e 133 686
e 133 689
e 133 723
e 133 724
e 133 731
e 133 736
e 133 753
e 133 777
e 133 785
e 133 808
e 133 813
e 133 828
e 133 837
e 133 873
e 133 896
e 133 934
e 133 949
e 133 955
e 133 959
e 133 960
e 134 254
e 134 294
e 134 300
e 134 378
e 134 382
e 134 413
e 134 419
e 134 447
e 134 451
e 134 452
e 134 457
e 134 461
e 134 475
e 134 499
e 134 521
e 134 534
e 134 571
e 134 576
e 134 578
e 134 641
e 134 699
e 134 701
e 134 702
e 134 707
e 134 716
e 134 719
e 134 750
e 134 770
e 134 821
e 134 847
e 134 877
e 134 951
e 134 960
e 134 968
e 134 988
e 135 276
e 135 292
e 135 307
e 135 323
e 135 349
e 135 353
e 135 364
e 135 371
e 135 377
e 135 389
e 135 399
e 135 409
e 135 417
e 135 421
e 135 441
e 135 452
e 135 505
e 135 589
e 135 590
e 135 596
e 135 599
e 135 613
e 135 652
e 135 661
e 135 667
e 135 738
e 135 761
e 135 779
e 135 791
e 135 815
e 135 836
e 135 837
e 135 844
e 135 875
e 135 905
e 135 929
e 135 938
e 135 941
e 135 943
e 135 949
e 135 960
e 135 987
e 136 266
e 136 274
e 136 286
e 136 291
e 136 299
e 136 302
e 136 321
e 136 343
e 136 369
e 136 399
e 136 428
e 136 431
e 136 504
e 136 519
e 136 531
e 136 544
e 136 552
e 136 555
e 136 579
e 136 584
e 136 592
e 136 602
e 136 673
e 136 675
e 136 694
e 136 726
e 136 789
e 136 813
e 136 818
e 136 846
e 136 880
e 136 886
e 136 896
e 136 899
e 136 940
e 136 956
e 136 958
e 137 257
e 137 287
e 137 329
e 137 331
e 137 332
e 137 345
e 137 379
e 137 404
e 137 414
e 137 432
e 137 443
e 137 455
e 137 473
e 137 518
e 137 520
e 137 552
e 137 559
e 137 574
e 137 608
e 137 610
e 137 615
e 137 670
e 137 753
e 137 759
e 137 760
e 137 762
e 137 774
e 137 797
e 137 828
e 137 834
e 137 850
e 137 852
e 137 890
e 137 932
e 137 946
e 137 986
e 138 256
e 138 352
e 138 354
e 138 365
e 138 369
e 138 391
e 138 406
e 138 431
e 138 432
e 138 446
e 138 489
e 138 492
e 138 497
e 138 503
e 138 528
e 138 533
e 138 535
e 138 542
e 138 559
e 138 575
e 138 586
e 138 606
e 138 630
e 138 689
e 138 720
e 138 746
e 138 759
e 138 779
e 138 782
e 138 784
e 138 816
e 138 819
e 138 826
e 138 831
e 138 845
e 138 847
e 138 857
e 138 907
e 138 977
e 138 985
e 138 996
e 139 274
e 139 341
e 139 360
e 139 386
e 139 399
e 139 488
e 139 518
e 139 565
e 139 572
e 139 581
e 139 592
e 139 608
e 139 616
e 139 620
e 139 754
e 139 762
e 139 772
e 139 826
e 139 832
e 139 931
e 139 938
e 139 943
e 139 961
e 139 970
e 139 988
e 140 256
e 140 266
e 140 269
e 140 309
e 140 314
e 140 332
e 140 342
e 140 343
e 140 374
e 140 380
e 140 437
e 140 458
e 140 511
e 140 548
e 140 553
e 140 564
e 140 594
e 140 617
e 140 624
e 140 692
e 140 708
e 140 762
e 140 775
e 140 776
e 140 780
e 140 819
e 140 826
e 140 866
e 140 900
e 140 977
e 141 297
e 141 304
e 141 336
e 141 346
e 141 360
e 141 369
e 141 398
e 141 411
e 141 414
e 141 446
e 141 447
e 141 456
e 141 460
e 141 474
e 141 508
e 141 537
e 141 547
e 141 558
e 141 587
e 141 594
e 141 610
e 141 614
e 141 649
e 141 681
e 141 702
e 141 728
e 141 729
e 141 749
e 141 772
e 141 775
e 141 797
e 141 836
e 141 838
e 141 843
e 141 847
e 141 852
e 141 883
e 141 910
e 141 992
e 142 254
e 142 303
e 142 312
e 142 336
e 142 356
e 142 388
e 142 421
e 142 430
e 142 434
e 142 451
e 142 466
e 142 471
e 142 491
e 142 506
e 142 509
e 142 513
e 142 572
e 142 584
e 142 588
e 142 591
e 142 597
e 142 613
e 142 625
e 142 628
e 142 647
e 142 674
e 142 692
e 142 726
e 142 727
e 142 734
e 142 787
e 142 791
e 142 823
e 142 898
e 142 925
e 142 930
e 142 932
e 142 940
e 142 943
e 142 955
e 143 299
e 143 328
e 143 376
e 143 380
e 143 395
e 143 397
e 143 405
e 143 433
e 143 437
e 143 448
e 143 453
e 143 489
e 143 505
e 143 510
e 143 579
e 143 608
e 143 623
e 143 632
e 143 641
e 143 654
e 143 659
e 143 743
e 143 767
e 143 778
e 143 789
e 143 797
e 143 806
e 143 871
e 143 881
e 143 893
e 143 929
e 143 975
e 143 976
e 143 987
e 144 279
e 144 297
e 144 383
e 144 394
e 144 400
e 144 420
e 144 424
e 144 433
e 144 437
e 144 446
e 144 478
e 144 490
e 144 522
e 144 525
e 144 528
e 144 534
e 144 544
e 144 568
e 144 576
e 144 613
e 144 614
e 144 625
e 144 631
e 144 649
e 144 674
e 144 683
e 144 691
e 144 697
e 144 698
e 144 738
e 144 740
e 144 761
e 144 773
e 144 775
e 144 808
e 144 852
e 144 872
e 144 899
e 144 911
e 144 925
e 144 927
e 144 955
e 144 967
e 144 979
e 145 294
e 145 308
e 145 309
e 145 355
e 145 437
e 145 455
e 145 507
e 145 514
e 145 527
e 145 536
e 145 545
e 145 554
e 145 568
e 145 577
e 145 618
e 145 629
e 145 680
e 145 698
e 145 708
e 145 709
e 145 751
e 145 753
e 145 754
e 145 773
e 145 799
e 145 812
e 145 817
e 145 856
e 145 860
e 145 866
e 145 884
e 145 906
e 145 923
e 145 934
e 145 966
e 146 262
e 146 270
e 146 288
e 146 345
e 146 369
e 146 444
e 146 457
e 146 474
e 146 478
e 146 483
e 146 490
e 146 502
e 146 551
e 146 643
e 146 670
e 146 708
e 146 770
e 146 874
e 146 933
e 146 941
e 146 948
e 146 966
e 146 980
e 146 986
e 146 990
e 147 266
e 147 272
e 147 275
e 147 279
e 147 284
e 147 293
e 147 302
e 147 313
e 147 331
e 147 348
e 147 357
e 147 402
e 147 453
e 147 482
e 147 515
e 147 535
e 147 536
e 147 539
e 147 553
e 147 559
e 147 601
e 147 605
e 147 612
e 147 666
e 147 673
e 147 677
e 147 681
e 147 717
e 147 723
e 147 733
e 147 768
e 147 783
e 147 803
e 147 808
e 147 839
e 147 903
e 147 911
e 147 925
e 147 933
e 147 934
e 147 957
e 147 974
e 147 992
e 148 284
e 148 315
e 148 338
e 148 364
e 148 409
e 148 460
e 148 529
e 148 541
e 148 542
e 148 543
e 148 596
e 148 604
e 148 626
e 148 632
e 148 636
e 148 642
e 148 661
e 148 690
e 148 691
e 148 714
e 148 717
e 148 781
e 148 805
e 148 836
e 148 837
e 148 855
e 148 873
e 148 908
e 148 913
e 148 929
e 148 931
e 148 942
e 148 945
e 148 948
e 148 951
e 148 964
e 149 258
e 149 267
e 149 276
e 149 383
e 149 397
e 149 411
e 149 449
e 149 462
e 149 493
e 149 498
e 149 507
e 149 512
e 149 546
e 149 552
e 149 567
e 149 576
e 149 577
e 149 595
e 149 599
e 149 646
e 149 653
e 149 655
e 149 709
e 149 721
e 149 754
e 149 787
e 149 797
e 149 828
e 149 839
e 149 856
e 149 880
e 149 881
e 149 888
e 149 955
e 149 973
e 149 987
e 150 256
e 150 286
e 150 338
e 150 366
e 150 367
e 150 392
e 150 397
e 150 398
e 150 433
e 150 446
e 150 463
e 150 465
e 150 482
e 150 531
e 150 557
e 150 579
e 150 581
e 150 609
e 150 636
e 150 641
e 150 663
e 150 695
e 150 696
e 150 699
e 150 703
e 150 706
e 150 730
e 150 742
e 150 758
e 150 771
e 150 781
e 150 797
e 150 845
e 150 850
e 150 888
e 150 925
e 150 962
e 150 979
e 150 992
e 151 315
e 151 328
e 151 376
e 151 382
e 151 388
e 151 389
e 151 444
e 151 451
e 151 465
e 151 466
e 151 485
e 151 493
e 151 519
e 151 528
e 151 585
e 151 596
e 151 626
e 151 633
e 151 656
e 151 665
e 151 668
e 151 675
e 151 688
e 151 694
e 151 701
e 151 726
e 151 740
e 151 744
e 151 745
e 151 755
e 151 760
e 151 778
e 151 782
e 151 787
e 151 824
e 151 929
e 151 933
e 151 943
e 151 958
e 151 960
e 151 990
e 152 286
e 152 297
e 152 307
e 152 318
e 152 325
e 152 344
e 152 398
e 152 411
e 152 461
e 152 470
e 152 472
e 152 484
e 152 514
e 152 524
e 152 537
e 152 551
e 152 583
e 152 585
e 152 646
e 152 650
e 152 671
e 152 690
e 152 758
e 152 778
e 152 802
e 152 811
e 152 822
e 152 837
e 152 868
e 152 871
e 152 892
e 152 900
e 152 929
e 152 948
e 152 955
e 153 256
e 153 344
e 153 368
e 153 386
e 153 438
e 153 459
e 153 462
e 153 472
e 153 475
e 153 476
e 153 483
e 153 491
e 153 494
e 153 543
e 153 548
e 153 581
e 153 595
e 153 597
e 153 611
e 153 718
e 153 762
e 153 804
e 153 820
e 153 827
e 153 839
e 153 896
e 153 912
e 153 946
e 153 953
e 153 955
e 153 957
e 153 959
e 153 963
e 153 978
e 154 267
e 154 321
e 154 330
e 154 343
e 154 352
e 154 371
e 154 384
e 154 387
e 154 406
e 154 407
e 154 411
e 154 438
e 154 440
e 154 443
e 154 448
e 154 450
e 154 453
e 154 459
e 154 478
e 154 512
e 154 515
e 154 518
e 154 546
e 154 572
e 154 666
e 154 727
e 154 735
e 154 738
e 154 764
e 154 812
e 154 850
e 154 852
e 154 897
e 154 917
e 154 938
e 154 955
e 154 967
e 154 982
e 154 993
e 154 994
e 155 278
e 155 281
e 155 315
e 155 330
e 155 344
e 155 371
e 155 390
e 155 392
e 155 395
e 155 397
e 155 422
e 155 423
e 155 442
e 155 475
e 155 486
e 155 489
e 155 496
e 155 501
e 155 503
e 155 554
e 155 592
e 155 597
e 155 602
e 155 614
e 155 622
e 155 690
e 155 696
e 155 712
e 155 715
e 155 716
e 155 723
e 155 758
e 155 782
e 155 793
e 155 805
e 155 827
e 155 829
e 155 866
e 155 895
e 155 905
e 155 953
e 155 964
e 155 984
e 156 255
e 156 272
e 156 273
e 156 276
e 156 305
e 156 308
e 156 322
e 156 325
e 156 330
e 156 359
e 156 405
e 156 432
e 156 437
e 156 452
e 156 524
e 156 534
e 156 541
e 156 564
e 156 567
e 156 589
e 156 619
e 156 623
e 156 666
e 156 690
e 156 731
e 156 758
e 156 779
e 156 800
e 156 803
e 156 861
e 156 915
e 156 935
e 156 976
e 157 254
e 157 259
e 157 267
e 157 285
e 157 301
e 157 345
e 157 378
e 157 422
e 157 424
e 157 438
e 157 444
e 157 470
e 157 478
e 157 506
e 157 564
e 157 588
e 157 616
e 157 674
e 157 701
e 157 708
e 157 775
e 157 783
e 157 789
e 157 792
e 157 828
e 157 831
e 157 839
e 157 856
e 157 861
e 157 880
e 157 899
e 157 936
e 157 983
e 158 298
e 158 313
e 158 315
e 158 380
e 158 384
e 158 420
e 158 452
e 158 474
e 158 475
e 158 478
e 158 495
e 158 508
e 158 512
e 158 520
e 158 525
e 158 536
e 158 538
e 158 575
e 158 603
e 158 624
e 158 643
e 158 651
e 158 663
e 158 675
e 158 695
e 158 712
e 158 749
e 158 756
e 158 757
e 158 771
e 158 773
e 158 777
e 158 818
e 158 821
e 158 850
e 158 857
e 158 874
e 158 896
e 158 898
e 158 911
e 158 931
e 158 971
e 158 982
e 158 993
e 158 1000
e 159 251
e 159 255
e 159 264
e 159 285
e 159 295
e 159 321
e 159 329
e 159 337
e 159 355
e 159 363
e 159 388
e 159 396
e 159 416
e 159 418
e 159 422
e 159 456
e 159 463
e 159 482
e 159 509
e 159 554
e 159 581
e 159 618
e 159 626
e 159 647
e 159 692
e 159 742
e 159 797
e 159 807
e 159 812
e 159 845
e 159 846
e 159 854
e 159 858
e 159 868
e 159 877
e 159 878
e 159 909
e 159 925
e 159 946
e 159 959
e 159 967
e 159 968
e 159 969
e 159 986
e 159 987
e 160 260
e 160 276
e 160 284
e 160 294
e 160 315
e 160 316
e 160 319
e 160 338
e 160 360
e 160 380
e 160 409
e 160 418
e 160 431
e 160 433
e 160 454
e 160 485
e 160 493
e 160 574
e 160 576
e 160 616
e 160 617
e 160 620
e 160 650
e 160 666
e 160 684
e 160 690
e 160 709
e 160 718
e 160 740
e 160 805
e 160 827
e 160 834
e 160 844
e 160 848
e 160 896
e 160 932
e 160 982
e 160 984
e 160 996
e 161 269
e 161 279
e 161 315
e 161 322
e 161 328
e 161 342
e 161 359
e 161 362
e 161 386
e 161 392
e 161 398
e 161 404
e 161 426
e 161 459
e 161 533
e 161 536
e 161 552
e 161 591
e 161 619
e 161 657
e 161 726
e 161 737
e 161 755
e 161 803
e 161 849
e 161 850
e 161 869
e 161 909
e 161 972
e 161 977
e 161 981
e 161 1000
e 162 257
e 162 262
e 162 287
e 162 305
e 162 326
e 162 376
e 162 394
e 162 439
e 162 446
e 162 465
e 162 467
e 162 471
e 162 472
e 162 484
e 162 522
e 162 532
e 162 534
e 162 575
e 162 578
e 162 605
e 162 612
e 162 620
e 162 645
e 162 707
e 162 712
e 162 743
e 162 767
e 162 792
e 162 813
e 162 831
e 162 843
e 162 853
e 162 881
e 162 911
e 162 944
e 162 970
e 163 255
e 163 260
e 163 310
e 163 330
e 163 343
e 163 346
e 163 363
e 163 459
e 163 465
e 163 471
e 163 473
e 163 521
e 163 615
e 163 630
e 163 631
e 163 637
e 163 641
e 163 673
e 163 676
e 163 683
e 163 684
e 163 700
e 163 702
e 163 707
e 163 718
e 163 744
e 163 752
e 163 753
e 163 787
e 163 799
e 163 819
e 163 858
e 163 864
e 163 870
e 163 896
e 163 901
e 163 962
e 163 963
e 163 973
e 163 994
e 164 272
e 164 277
e 164 302
e 164 309
e 164 345
e 164 374
e 164 375
e 164 385
e 164 410
e 164 457
e 164 492
e 164 546
e 164 607
e 164 620
e 164 632
e 164 653
e 164 702
e 164 730
e 164 733
e 164 759
e 164 788
e 164 852
e 164 891
e 164 975
e 164 992
e 165 278
e 165 313
e 165 331
e 165 349
e 165 368
e 165 388
e 165 398
e 165 423
e 165 457
e 165 486
e 165 494
e 165 506
e 165 545
e 165 553
e 165 694
e 165 718
e 165 723
e 165 741
e 165 755
e 165 781
e 165 813
e 165 867
e 165 873
e 165 919
e 165 958
e 165 978
e 166 276
e 166 322
e 166 326
e 166 341
e 166 358
e 166 385
e 166 403
e 166 454
e 166 482
e 166 490
e 166 503
e 166 549
e 166 598
e 166 602
e 166 616
e 166 620
e 166 622
e 166 623
e 166 628
e 166 677
e 166 704
e 166 748
e 166 773
e 166 785
e 166 786
e 166 794
e 166 839
e 166 898
e 166 902
e 166 916
e 166 984
e 167 263
e 167 286
e 167 294
e 167 305
e 167 325
e 167 334
e 167 335
e 167 344
e 167 348
e 167 436
e 167 445
e 167 458
e 167 460
e 167 466
e 167 468
e 167 559
e 167 570
e 167 597
e 167 601
e 167 647
e 167 709
e 167 754
e 167 759
e 167 769
e 167 792
e 167 812
e 167 851
e 167 861
e 167 872
e 167 876
e 167 877
e 167 886
e 167 895
e 167 908
e 167 937
e 167 944
e 167 957
e 167 963
e 167 977
e 168 258
e 168 269
e 168 280
e 168 376
e 168 378
e 168 400
e 168 431
e 168 439
e 168 445
e 168 535
e 168 600
e 168 607
e 168 613
e 168 615
e 168 618
e 168 650
e 168 653
e 168 669
e 168 682
e 168 688
e 168 711
e 168 743
e 168 745
e 168 746
e 168 753
e 168 754
e 168 786
e 168 790
e 168 824
e 168 827
e 168 833
e 168 839
e 168 843
e 168 885
e 168 904
e 169 280
e 169 295
e 169 357
e 169 382
e 169 403
e 169 421
e 169 472
e 169 501
e 169 534
e 169 565
e 169 601
e 169 620
e 169 665
e 169 682
e 169 687
e 169 740
e 169 768
e 169 785
e 169 800
e 169 810
e 169 831
e 169 858
e 169 886
e 169 888
e 169 897
e 169 909
e 169 928
e 169 944
e 169 951
e 169 970
e 170 283
e 170 288
e 170 316
e 170 384
e 170 391
e 170 394
e 170 421
e 170 424
e 170 536
e 170 567
e 170 608
e 170 610
e 170 618
e 170 645
e 170 682
e 170 700
e 170 716
e 170 733
e 170 734
e 170 755
e 170 783
e 170 806
e 170 812
e 170 875
e 170 879
e 170 885
e 170 919
e 170 936
e 170 951
e 170 977
e 171 256
e 171 264
e 171 274
e 171 304
e 171 311
e 171 313
e 171 330
e 171 366
e 171 377
e 171 381
e 171 403
e 171 419
e 171 436
e 171 441
e 171 453
e 171 457
e 171 469
e 171 483
e 171 506
e 171 565
e 171 572
e 171 601
e 171 605
e 171 616
e 171 637
e 171 650
e 171 676
e 171 707
e 171 709
e 171 742
e 171 755
e 171 759
e 171 787
e 171 789
e 171 810
e 171 818
e 171 825
e 171 837
e 171 841
e 171 856
e 171 903
e 171 907
e 171 939
e 171 957
e 171 959
e 171 966
e 171 981
e 171 984
e 171 985
e 171 991
e 172 271
e 172 276
e 172 290
e 172 335
e 172 351
e 172 367
e 172 372
e 172 383
e 172 450
e 172 459
e 172 505
e 172 528
e 172 535
e 172 597
e 172 632
e 172 633
e 172 634
e 172 635
e 172 667
e 172 679
e 172 737
e 172 743
e 172 746
e 172 749
e 172 750
e 172 761
e 172 764
e 172 815
e 172 816
e 172 825
e 172 831
e 172 855
e 172 857
e 172 894
e 172 906
e 172 936
e 172 959
e 172 961
e 172 976
e 173 294
e 173 306
e 173 307
e 173 327
e 173 328
e 173 334
e 173 352
e 173 372
e 173 373
e 173 396
e 173 417
e 173 432
e 173 451
e 173 462
e 173 496
e 173 501
e 173 536
e 173 609
e 173 627
e 173 673
e 173 679
e 173 685
e 173 720
e 173 757
e 173 860
e 173 863
e 173 893
e 173 918
e 173 930
e 173 934
e 173 994
e 173 999
e 174 252
e 174 286
e 174 343
e 174 353
e 174 373
e 174 379
e 174 415
e 174 440
e 174 450
e 174 472
e 174 520
e 174 530
e 174 570
e 174 583
e 174 612
e 174 619
e 174 635
e 174 641
e 174 644
e 174 651
e 174 665
e 174 698
e 174 714
e 174 730
e 174 737
e 174 739
e 174 760
e 174 761
e 174 783
e 174 824
e 174 846
e 174 887
e 174 926
e 174 931
e 174 951
e 174 988
e 174 995
e 174 997
e 175 295
e 175 326
e 175 343
e 175 362
e 175 386
e 175 434
e 175 470
e 175 496
e 175 500
e 175 515
e 175 527
e 175 535
e 175 548
e 175 564
e 175 572
e 175 576
e 175 617
e 175 625
e 175 630
e 175 648
e 175 659
e 175 677
e 175 688
e 175 689
e 175 690
e 175 692
e 175 790
e 175 798
e 175 822
e 175 840
e 175 887
e 175 906
e 175 944
e 175 948
e 175 951
e 175 952
e 175 955
e 175 956
e 176 267
e 176 305
e 176 311
e 176 315
e 176 352
e 176 355
e 176 400
e 176 447
e 176 449
e 176 490
e 176 494
e 176 509
e 176 561
e 176 569
e 176 583
e 176 597
e 176 635
e 176 650
e 176 655
e 176 689
e 176 702
e 176 734
e 176 738
e 176 744
e 176 748
e 176 766
e 176 797
e 176 813
e 176 852
e 176 857
e 176 867
e 176 900
e 176 914
e 176 933
e 176 940
e 176 972
e 176 974
e 177 266
e 177 267
e 177 307
e 177 314
e 177 340
e 177 417
e 177 446
e 177 464
e 177 467
e 177 479
e 177 483
e 177 485
e 177 487
e 177 519
e 177 563
e 177 582
e 177 588
e 177 615
e 177 641
e 177 657
e 177 767
e 177 770
e 177 774
e 177 781
e 177 783
e 177 789
e 177 794
e 177 800
e 177 808
e 177 896
e 177 955
e 178 255
e 178 270
e 178 308
e 178 338
e 178 342
e 178 374
e 178 407
e 178 413
e 178 433
e 178 452
e 178 472
e 178 476
e 178 487
e 178 495
e 178 527
e 178 535
e 178 583
e 178 594
e 178 633
e 178 635
e 178 637
e 178 640
e 178 645
e 178 663
e 178 667
e 178 739
e 178 751
e 178 769
e 178 770
e 178 797
e 178 804
e 178 834
e 178 842
e 178 871
e 178 874
e 178 880
e 178 888
e 178 928
e 178 955
e 178 963
e 179 267
e 179 268
e 179 274
e 179 285
e 179 303
e 179 393
e 179 426
e 179 469
e 179 484
e 179 514
e 179 521
e 179 538
e 179 589
e 179 622
e 179 644
e 179 651
e 179 668
e 179 693
e 179 706
e 179 717
e 179 740
e 179 747
e 179 758
e 179 781
e 179 794
e 179 796
e 179 811
e 179 829
e 179 833
e 179 860
e 179 880
e 179 885
e 179 906
e 179 952
e 179 977
e 179 993
e 180 327
e 180 336
e 180 349
e 180 352
e 180 371
e 180 385
e 180 420
e 180 459
e 180 474
e 180 480
e 180 502
e 180 526
e 180 563
e 180 564
e 180 602
e 180 603
e 180 605
e 180 644
e 180 680
e 180 691
e 180 700
e 180 722
e 180 733
e 180 771
e 180 774
e 180 842
e 180 879
e 180 890
e 180 900
e 180 905
e 180 910
e 180 956
e 180 974
e 181 297
e 181 316
e 181 321
e 181 334
e 181 349
e 181 353
e 181 373
e 181 423
e 181 434
e 181 453
e 181 456
e 181 487
e 181 501
e 181 529
e 181 556
e 181 583
e 181 585
e 181 591
e 181 612
e 181 613
e 181 626
e 181 630
e 181 674
e 181 687
e 181 690
e 181 696
e 181 726
e 181 759
e 181 760
e 181 763
e 181 772
e 181 798
e 181 828
e 181 830
e 181 858
e 181 880
e 181 943
e 181 957
e 181 968
e 181 972
e 181 974
e 182 286
e 182 289
e 182 310
e 182 316
e 182 322
e 182 326
e 182 334
e 182 356
e 182 364
e 182 368
e 182 380
e 182 420
e 182 472
e 182 509
e 182 529
e 182 535
e 182 539
e 182 561
e 182 565
e 182 572
e 182 615
e 182 626
e 182 663
e 182 670
e 182 679
e 182 680
e 182 688
e 182 725
e 182 731
e 182 747
e 182 758
e 182 789
e 182 812
e 182 813
e 182 818
e 182 830
e 182 836
e 182 859
e 182 948
e 182 963
e 182 974
e 182 995
e 183 255
e 183 298
e 183 299
e 183 304
e 183 333
e 183 359
e 183 361
e 183 375
e 183 400
e 183 408
e 183 430
e 183 434
e 183 451
e 183 461
e 183 514
e 183 525
e 183 540
e 183 566
e 183 664
e 183 669
e 183 688
e 183 710
e 183 714
e 183 762
e 183 764
e 183 772
e 183 809
e 183 821
e 183 827
e 183 841
e 183 865
e 183 894
e 183 912
e 183 914
e 183 941
e 183 964
e 183 969
e 183 980
e 183 984
e 184 257
e 184 272
e 184 279
e 184 323
e 184 326
e 184 346
e 184 354
e 184 370
e 184 381
e 184 392
e 184 436
e 184 438
e 184 442
e 184 466
e 184 470
e 184 491
e 184 523
e 184 538
e 184 543
e 184 594
e 184 629
e 184 642
e 184 654
e 184 655
e 184 726
e 184 728
e 184 776
e 184 793
e 184 794
e 184 800
e 184 816
e 184 825
e 184 831
e 184 863
e 184 920
e 184 923
e 184 980
e 185 252
e 185 253
e 185 256
e 185 264
e 185 271
e 185 304
e 185 317
e 185 372
e 185 377
e 185 429
e 185 450
e 185 481
e 185 489
e 185 500
e 185 505
e 185 544
e 185 551
e 185 565
e 185 568
e 185 614
e 185 616
e 185 631
e 185 655
e 185 671
e 185 691
e 185 717
e 185 775
e 185 805
e 185 811
e 185 817
e 185 818
e 185 823
e 185 886
e 185 899
e 185 941
e 185 949
e 185 956
e 185 974
e 186 261
e 186 263
e 186 303
e 186 318
e 186 327
e 186 353
e 186 365
e 186 383
e 186 403
e 186 412
e 186 439
e 186 441
e 186 446
e 186 480
e 186 548
e 186 569
e 186 571
e 186 582
e 186 632
e 186 647
e 186 657
e 186 661
e 186 693
e 186 702
e 186 725
e 186 731
e 186 749
e 186 812
e 186 816
e 186 844
e 186 848
e 186 855
e 186 885
e 186 913
e 186 921
e 186 943
e 186 966
e 186 978
e 186 992
e 187 263
e 187 275
e 187 295
e 187 305
e 187 352
e 187 397
e 187 404
e 187 409
e 187 419
e 187 437
e 187 481
e 187 498
e 187 560
e 187 587
e 187 612
e 187 627
e 187 628
e 187 630
e 187 640
e 187 654
e 187 675
e 187 684
e 187 689
e 187 692
e 187 708
e 187 730
e 187 764
e 187 790
e 187 828
e 187 833
e 187 849
e 187 866
e 187 886
e 187 949
e 187 962
e 187 976
e 187 990
e 187 999
e 188 258
e 188 318
e 188 352
e 188 366
e 188 389
e 188 406
e 188 420
e 188 424
e 188 432
e 188 435
e 188 437
e 188 481
e 188 490
e 188 494
e 188 518
e 188 549
e 188 632
e 188 640
e 188 642
e 188 647
e 188 682
e 188 703
e 188 711
e 188 745
e 188 759
e 188 767
e 188 785
e 188 807
e 188 811
e 188 831
e 188 833
e 188 884
e 188 885
e 188 905
e 188 927
e 188 941
e 188 950
e 188 983
e 188 984
e 188 985
e 189 290
e 189 314
e 189 330
e 189 352
e 189 366
e 189 423
e 189 525
e 189 546
e 189 564
e 189 569
e 189 574
e 189 600
e 189 607
e 189 641
e 189 660
e 189 685
e 189 706
e 189 731
e 189 777
e 189 785
e 189 797
e 189 801
e 189 822
e 189 834
e 189 854
e 189 883
e 189 886
e 189 897
e 189 928
e 189 961
e 189 963
e 190 251
e 190 287
e 190 288
e 190 293
e 190 323
e 190 327
e 190 339
e 190 350
e 190 351
e 190 383
e 190 403
e 190 508
e 190 524
e 190 541
e 190 549
e 190 558
e 190 596
e 190 605
e 190 646
e 190 687
e 190 697
e 190 713
e 190 729
e 190 735
e 190 748
e 190 751
e 190 752
e 190 802
e 190 823
e 190 825
e 190 831
e 190 870
e 190 925
e 190 950
e 190 960
e 191 268
e 191 269
e 191 274
e 191 276
e 191 337
e 191 344
e 191 456
e 191 460
e 191 461
e 191 464
e 191 471
e 191 518
e 191 544
e 191 580
e 191 586
e 191 618
e 191 622
e 191 666
e 191 698
e 191 722
e 191 740
e 191 742
e 191 743
e 191 745
e 191 758
e 191 759
e 191 803
e 191 814
e 191 834
e 191 870
e 191 906
e 191 919
e 191 922
e 191 955
e 191 969
e 191 972
e 191 982
e 192 258
e 192 267
e 192 293
e 192 321
e 192 323
e 192 339
e 192 369
e 192 396
e 192 414
e 192 454
e 192 467
e 192 493
e 192 543
e 192 569
e 192 587
e 192 660
e 192 664
e 192 687
e 192 701
e 192 788
e 192 807
e 192 814
e 192 831
e 192 859
e 192 885
e 192 899
e 192 909
e 192 932
e 192 997
e 192 998
e 193 252
e 193 263
e 193 270
e 193 288
e 193 295
e 193 296
e 193 308
e 193 377
e 193 391
e 193 486
e 193 513
e 193 514
e 193 517
e 193 529
e 193 536
e 193 563
e 193 567
e 193 578
e 193 631
e 193 661
e 193 674
e 193 726
e 193 759
e 193 760
e 193 778
e 193 790
e 193 824
e 193 830
e 193 842
e 193 855
e 193 871
e 193 894
e 193 941
e 193 950
e 193 956
e 193 964
e 194 270
e 194 282
e 194 289
e 194 307
e 194 321
e 194 359
e 194 409
e 194 454
e 194 462
e 194 480
e 194 502
e 194 520
e 194 555
e 194 560
e 194 566
e 194 572
e 194 594
e 194 614
e 194 622
e 194 634
e 194 635
e 194 649
e 194 684
e 194 688
e 194 704
e 194 709
e 194 724
e 194 731
e 194 736
e 194 738
e 194 828
e 194 837
e 194 843
e 194 888
e 194 892
e 194 893
e 194 896
e 194 913
e 194 914
e 194 928
e 194 946
e 194 960
e 194 998
e 195 265
e 195 273
e 195 282
e 195 285
e 195 310
e 195 315
e 195 316
e 195 340
e 195 343
e 195 353
e 195 397
e 195 407
e 195 428
e 195 439
e 195 443
e 195 462
e 195 466
e 195 496
e 195 510
e 195 546
e 195 571
e 195 610
e 195 611
e 195 667
e 195 693
e 195 702
e 195 709
e 195 719
e 195 724
e 195 746
e 195 749
e 195 756
e 195 763
e 195 814
e 195 828
e 195 833
e 195 835
e 195 839
e 195 850
e 195 869
e 195 934
e 195 942
e 195 961
e 195 963
e 195 977
e 196 260
e 196 263
e 196 288
e 196 356
e 196 422
e 196 475
e 196 481
e 196 517
e 196 681
e 196 692
e 196 697
e 196 703
e 196 717
e 196 736
e 196 780
e 196 823
e 196 869
e 196 905
e 196 929
e 196 931
e 196 989
e 197 268
e 197 287
e 197 291
e 197 293
e 197 294
e 197 297
e 197 305
e 197 308
e 197 327
e 197 349
e 197 377
e 197 381
e 197 389
e 197 409
e 197 437
e 197 443
e 197 466
e 197 484
e 197 496
e 197 503
e 197 507
e 197 522
e 197 537
e 197 564
e 197 588
e 197 591
e 197 593
e 197 645
e 197 688
e 197 704
e 197 753
e 197 763
e 197 797
e 197 803
e 197 805
e 197 841
e 197 886
e 197 895
e 197 920
e 197 924
e 197 941
e 197 961
e 197 993
e 198 253
e 198 258
e 198 270
e 198 304
e 198 313
e 198 368
e 198 390
e 198 436
e 198 491
e 198 515
e 198 520
e 198 523
e 198 536
e 198 547
e 198 556
e 198 565
e 198 573
e 198 599
e 198 665
e 198 690
e 198 694
e 198 720
e 198 753
e 198 763
e 198 801
e 198 830
e 198 896
e 198 901
e 198 909
e 198 915
e 198 916
e 198 923
e 198 928
e 198 929
e 198 968
e 198 979
e 198 983
e 198 999
e 199 258
e 199 301
e 199 311
e 199 312
e 199 319
e 199 335
e 199 336
e 199 352
e 199 386
e 199 417
e 199 430
e 199 451
e 199 452
e 199 495
e 199 537
e 199 582
e 199 598
e 199 670
e 199 681
e 199 687
e 199 688
e 199 701
e 199 724
e 199 744
e 199 750
e 199 785
e 199 802
e 199 835
e 199 850
e 199 862
e 199 866
e 199 882
e 199 887
e 199 911
e 199 919
e 199 923
e 199 948
e 199 954
e 199 994
e 200 278
e 200 315
e 200 339
e 200 340
e 200 361
e 200 384
e 200 419
e 200 423
e 200 430
e 200 438
e 200 439
e 200 466
e 200 481
e 200 485
e 200 494
e 200 516
e 200 517
e 200 539
e 200 544
e 200 577
e 200 604
e 200 610
e 200 613
e 200 630
e 200 631
e 200 653
e 200 655
e 200 661
e 200 662
e 200 663
e 200 695
e 200 742
e 200 747
e 200 766
e 200 768
e 200 776
e 200 801
e 200 803
e 200 811
e 200 832
e 200 838
e 200 846
e 200 863
e 200 891
e 200 904
e 200 916
e 200 937
e 200 942
e 200 970
e 200 976
e 200 979
e 200 988
e 201 253
e 201 274
e 201 298
e 201 308
e 201 334
e 201 381
e 201 401
e 201 433
e 201 505
e 201 507
e 201 515
e 201 531
e 201 532
e 201 549
e 201 645
e 201 646
e 201 686
e 201 687
e 201 688
e 201 695
e 201 714
e 201 805
e 201 857
e 201 862
e 201 864
e 201 869
e 201 929
e 201 941
e 201 976
e 201 983
e 202 267
e 202 280
e 202 318
e 202 323
e 202 330
e 202 331
e 202 339
e 202 349
e 202 365
e 202 368
e 202 376
e 202 397
e 202 407
e 202 408
e 202 437
e 202 486
e 202 542
e 202 594
e 202 631
e 202 663
e 202 671
e 202 681
e 202 707
e 202 796
e 202 825
e 202 843
e 202 847
e 202 872
e 202 878
e 202 885
e 202 960
e 202 966
e 203 258
e 203 335
e 203 374
e 203 380
e 203 387
e 203 441
e 203 460
e 203 466
e 203 484
e 203 500
e 203 508
e 203 532
e 203 533
e 203 552
e 203 622
e 203 633
e 203 689
e 203 710
e 203 711
e 203 752
e 203 758
e 203 852
e 203 961
e 203 965
e 204 265
e 204 281
e 204 314
e 204 325
e 204 376
e 204 382
e 204 403
e 204 432
e 204 456
e 204 506
e 204 509
e 204 550
e 204 561
e 204 563
e 204 577
e 204 610
e 204 679
e 204 699
e 204 706
e 204 714
e 204 716
e 204 724
e 204 736
e 204 771
e 204 820
e 204 861
e 204 862
e 204 872
e 204 873
e 204 874
e 204 876
e 204 915
e 204 922
e 204 923
e 204 924
e 204 955
e 204 962
e 204 970
e 205 256
e 205 267
e 205 270
e 205 284
e 205 298
e 205 322
e 205 339
e 205 351
e 205 391
e 205 406
e 205 436
e 205 458
e 205 476
e 205 490
e 205 505
e 205 555
e 205 569
e 205 575
e 205 612
e 205 620
e 205 630
e 205 643
e 205 656
e 205 662
e 205 749
e 205 776
e 205 779
e 205 787
e 205 802
e 205 837
e 205 841
e 205 859
e 205 878
e 205 879
e 205 880
e 205 890
e 205 898
e 205 915
e 205 920
e 205 925
e 205 935
e 205 940
e 205 961
e 205 964
e 205 982
e 205 985
e 205 989
e 206 287
e 206 290
e 206 293
e 206 302
e 206 358
e 206 364
e 206 379
e 206 465
e 206 494
e 206 508
e 206 514
e 206 567
e 206 577
e 206 614
e 206 649
e 206 681
e 206 684
e 206 719
e 206 729
e 206 732
e 206 754
e 206 775
e 206 794
e 206 803
e 206 849
e 206 900
e 206 933
e 206 937
e 206 956
e 206 990
e 207 258
e 207 260
e 207 367
e 207 385
e 207 409
e 207 435
e 207 439
e 207 452
e 207 495
e 207 501
e 207 537
e 207 541
e 207 544
e 207 562
e 207 576
e 207 580
e 207 608
e 207 624
e 207 661
e 207 669
e 207 670
e 207 678
e 207 702
e 207 709
e 207 719
e 207 737
e 207 765
e 207 778
e 207 786
e 207 813
e 207 814
e 207 820
e 207 827
e 207 830
e 207 837
e 207 890
e 207 924
e 207 937
e 207 948
e 207 960
e 207 991
e 208 262
e 208 285
e 208 290
e 208 311
e 208 327
e 208 348
e 208 350
e 208 363
e 208 375
e 208 392
e 208 408
e 208 426
e 208 443
e 208 455
e 208 505
e 208 525
e 208 570
e 208 597
e 208 628
e 208 629
e 208 649
e 208 678
e 208 680
e 208 741
e 208 812
e 208 814
e 208 901
e 208 917
e 208 927
e 208 935
e 208 955
e 209 277
e 209 301
e 209 349
e 209 366
e 209 386
e 209 405
e 209 406
e 209 408
e 209 425
e 209 426
e 209 481
e 209 484
e 209 496
e 209 502
e 209 521
e 209 582
e 209 592
e 209 625
e 209 649
e 209 664
e 209 668
e 209 701
e 209 728
e 209 751
e 209 757
e 209 779
e 209 801
e 209 807
e 209 840
e 209 841
e 209 852
e 209 872
e 209 878
e 209 896
e 209 903
e 209 914
e 209 928
e 209 930
e 209 954
e 209 965
e 209 971
e 209 998
e 210 261
e 210 285
e 210 288
e 210 313
e 210 335
e 210 372
e 210 378
e 210 388
e 210 409
e 210 414
e 210 419
e 210 424
e 210 486
e 210 495
e 210 506
e 210 510
e 210 514
e 210 576
e 210 596
e 210 605
e 210 613
e 210 626
e 210 659
e 210 682
e 210 701
e 210 706
e 210 725
e 210 736
e 210 805
e 210 820
e 210 855
e 210 889
e 210 898
e 210 903
e 210 908
e 210 934
e 210 995
e 211 261
e 211 377
e 211 422
e 211 446
e 211 452
e 211 486
e 211 488
e 211 489
e 211 504
e 211 506
e 211 538
e 211 554
e 211 571
e 211 581
e 211 588
e 211 608
e 211 620
e 211 631
e 211 638
e 211 652
e 211 655
e 211 681
e 211 698
e 211 701
e 211 704
e 211 717
e 211 806
e 211 861
e 211 881
e 211 885
e 211 896
e 211 905
e 211 927
e 211 930
e 211 963
e 211 983
e 211 986
e 211 987
e 212 254
e 212 286
e 212 297
e 212 300
e 212 306
e 212 343
e 212 346
e 212 349
e 212 375
e 212 377
e 212 404
e 212 457
e 212 481
e 212 491
e 212 511
e 212 518
e 212 547
e 212 563
e 212 576
e 212 578
e 212 590
e 212 598
e 212 610
e 212 639
e 212 677
e 212 714
e 212 719
e 212 757
e 212 772
e 212 775
e 212 784
e 212 792
e 212 794
e 212 799
e 212 818
e 212 822
e 212 829
e 212 937
e 212 938
e 212 989
e 213 253
e 213 319
e 213 322
e 213 332
e 213 347
e 213 348
e 213 353
e 213 362
e 213 385
e 213 404
e 213 412
e 213 435
e 213 450
e 213 519
e 213 548
e 213 568
e 213 583
e 213 609
e 213 643
e 213 684
e 213 739
e 213 778
e 213 793
e 213 794
e 213 839
e 213 848
e 213 864
e 213 868
e 213 885
e 213 893
e 213 895
e 213 922
e 213 1000
e 214 260
e 214 268
e 214 312
e 214 323
e 214 344
e 214 356
e 214 392
e 214 500
e 214 506
e 214 520
e 214 538
e 214 587
e 214 624
e 214 642
e 214 667
e 214 708
e 214 737
e 214 740
e 214 752
e 214 768
e 214 775
e 214 782
e 214 786
e 214 805
e 214 823
e 214 839
e 214 843
e 214 854
e 214 858
e 214 867
e 214 945
e 214 999
e 215 256
e 215 263
e 215 264
e 215 280
e 215 291
e 215 336
e 215 382
e 215 412
e 215 426
e 215 438
e 215 445
e 215 505
e 215 509
e 215 512
e 215 523
e 215 544
e 215 560
e 215 572
e 215 595
e 215 620
e 215 638
e 215 733
e 215 735
e 215 736
e 215 737
e 215 754
e 215 765
e 215 796
e 215 799
e 215 812
e 215 823
e 215 833
e 215 835
e 215 840
e 215 847
e 215 850
e 215 857
e 215 863
e 215 882
e 215 932
e 215 951
e 215 970
e 215 997
e 216 302
e 216 347
e 216 376
e 216 418
e 216 432
e 216 449
e 216 473
e 216 494
e 216 523
e 216 541
e 216 549
e 216 577
e 216 615
e 216 684
e 216 685
e 216 696
e 216 721
e 216 742
e 216 782
e 216 823
e 216 825
e 216 850
e 216 852
e 216 871
e 216 876
e 216 892
e 216 897
e 216 907
e 216 931
e 216 985
e 216 993
e 216 999
e 217 256
e 217 278
e 217 297
e 217 303
e 217 352
e 217 373
e 217 374
e 217 389
e 217 397
e 217 398
e 217 399
e 217 407
e 217 415
e 217 422
e 217 431
e 217 438
e 217 454
e 217 467
e 217 468
e 217 504
e 217 506
e 217 507
e 217 522
e 217 525
e 217 528
e 217 532
e 217 555
e 217 567
e 217 583
e 217 591
e 217 592
e 217 597
e 217 621
e 217 654
e 217 662
e 217 706
e 217 740
e 217 777
e 217 793
e 217 825
e 217 826
e 217 850
e 217 890
e 217 894
e 217 955
e 217 956
e 217 979
e 218 288
e 218 358
e 218 380
e 218 384
e 218 397
e 218 441
e 218 490
e 218 514
e 218 532
e 218 572
e 218 586
e 218 591
e 218 596
e 218 611
e 218 613
e 218 642
e 218 669
e 218 692
e 218 775
e 218 776
e 218 808
e 218 834
e 218 868
e 218 907
e 218 926
e 218 945
e 218 985
e 219 272
e 219 279
e 219 295
e 219 299
e 219 302
e 219 308
e 219 311
e 219 349
e 219 351
e 219 404
e 219 406
e 219 411
e 219 415
e 219 445
e 219 481
e 219 488
e 219 493
e 219 603
e 219 617
e 219 618
e 219 644
e 219 667
e 219 673
e 219 698
e 219 713
e 219 742
e 219 757
e 219 762
e 219 764
e 219 769
e 219 803
e 219 809
e 219 813
e 219 846
e 219 856
e 219 857
e 219 872
e 219 887
e 219 897
e 219 898
e 219 907
e 219 914
e 220 256
e 220 261
e 220 271
e 220 310
e 220 357
e 220 374
e 220 410
e 220 416
e 220 426
e 220 476
e 220 483
e 220 506
e 220 518
e 220 529
e 220 530
e 220 594
e 220 622
e 220 627
e 220 629
e 220 634
e 220 652
e 220 693
e 220 696
e 220 709
e 220 743
e 220 745
e 220 749
e 220 831
e 220 859
e 220 868
e 220 877
e 220 878
e 220 888
e 220 911
e 221 255
e 221 271
e 221 284
e 221 298
e 221 300
e 221 320
e 221 336
e 221 346
e 221 366
e 221 371
e 221 392
e 221 434
e 221 469
e 221 477
e 221 511
e 221 515
e 221 522
e 221 525
e 221 534
e 221 552
e 221 601
e 221 612
e 221 628
e 221 673
e 221 714
e 221 727
e 221 744
e 221 747
e 221 763
e 221 777
e 221 801
e 221 843
e 221 875
e 221 885
e 221 925
e 221 938
e 221 967
e 221 972
e 222 261
e 222 287
e 222 302
e 222 344
e 222 365
e 222 396
e 222 442
e 222 448
e 222 449
e 222 483
e 222 493
e 222 504
e 222 514
e 222 539
e 222 545
e 222 551
e 222 576
e 222 579
e 222 607
e 222 658
e 222 683
e 222 688
e 222 692
e 222 734
e 222 774
e 222 790
e 222 829
e 222 834
e 222 841
e 222 848
e 222 870
e 222 891
e 222 910
e 222 936
e 222 971
e 222 979
e 222 996
e 223 268
e 223 287
e 223 293
e 223 295
e 223 302
e 223 398
e 223 409
e 223 437
e 223 487
e 223 489
e 223 526
e 223 537
e 223 543
e 223 559
e 223 573
e 223 577
e 223 635
e 223 672
e 223 683
e 223 697
e 223 765
e 223 773
e 223 776
e 223 789
e 223 814
e 223 833
e 223 844
e 223 855
e 223 859
e 223 861
e 223 874
e 223 933
e 223 952
e 223 960
e 224 257
e 224 316
e 224 332
e 224 335
e 224 396
e 224 463
e 224 491
e 224 504
e 224 544
e 224 562
e 224 578
e 224 599
e 224 602
e 224 641
e 224 648
e 224 656
e 224 666
e 224 682
e 224 694
e 224 702
e 224 717
e 224 748
e 224 764
e 224 793
e 224 825
e 224 834
e 224 845
e 224 857
e 224 863
e 224 893
e 224 935
e 224 994
e 225 253
e 225 260
e 225 329
e 225 332
e 225 336
e 225 341
e 225 345
e 225 367
e 225 372
e 225 378
e 225 388
e 225 415
e 225 430
e 225 434
e 225 464
e 225 482
e 225 499
e 225 518
e 225 565
e 225 602
e 225 636
e 225 685
e 225 727
e 225 746
e 225 798
e 225 807
e 225 820
e 225 834
e 225 853
e 225 854
e 225 872
e 225 881
e 225 898
e 225 909
e 225 930
e 225 937
e 225 967
e 225 977
e 226 251
e 226 272
e 226 274
e 226 288
e 226 337
e 226 363
e 226 383
e 226 416
e 226 445
e 226 495
e 226 537
e 226 544
e 226 584
e 226 613
e 226 625
e 226 637
e 226 712
e 226 722
e 226 748
e 226 764
e 226 788
e 226 805
e 226 819
e 226 842
e 226 892
e 226 896
e 226 913
e 226 922
e 226 925
e 226 926
e 226 940
e 226 978
e 226 999
e 227 270
e 227 283
e 227 344
e 227 356
e 227 368
e 227 373
e 227 375
e 227 377
e 227 410
e 227 420
e 227 476
e 227 496
e 227 502
e 227 513
e 227 519
e 227 553
e 227 566
e 227 571
e 227 574
e 227 590
e 227 602
e 227 606
e 227 680
e 227 703
e 227 705
e 227 736
e 227 744
e 227 804
e 227 806
e 227 820
e 227 861
e 227 868
e 227 873
e 227 886
e 227 893
e 227 899
e 227 916
e 227 945
e 227 961
e 227 972
e 227 994
e 228 279
e 228 280
e 228 292
e 228 293
e 228 316
e 228 330
e 228 352
e 228 357
e 228 377
e 228 380
e 228 464
e 228 470
e 228 491
e 228 494
e 228 501
e 228 508
e 228 510
e 228 518
e 228 560
e 228 646
e 228 669
e 228 690
e 228 702
e 228 705
e 228 728
e 228 751
e 228 759
e 228 779
e 228 790
e 228 822
e 228 831
e 228 850
e 228 932
e 228 936
e 228 943
e 228 953
e 228 964
e 228 966
e 228 975
e 229 267
e 229 321
e 229 357
e 229 420
e 229 425
e 229 440
e 229 443
e 229 516
e 229 560
e 229 580
e 229 581
e 229 586
e 229 592
e 229 607
e 229 608
e 229 637
e 229 660
e 229 682
e 229 700
e 229 716
e 229 727
e 229 729
e 229 761
e 229 769
e 229 772
e 229 795
e 229 803
e 229 867
e 229 939
e 229 940
e 229 950
e 229 965
e 229 980
e 230 260
e 230 263
e 230 267
e 230 268
e 230 295
e 230 296
e 230 320
e 230 323
e 230 331
e 230 386
e 230 421
e 230 430
e 230 509
e 230 512
e 230 522
e 230 526
e 230 544
e 230 558
e 230 572
e 230 630
e 230 635
e 230 642
e 230 688
e 230 690
e 230 757
e 230 777
e 230 778
e 230 783
e 230 830
e 230 835
e 230 859
e 230 860
e 230 895
e 230 942
e 230 949
e 230 959
e 230 973
e 230 988
e 230 996
e 231 256
e 231 289
e 231 317
e 231 363
e 231 368
e 231 417
e 231 442
e 231 448
e 231 461
e 231 467
e 231 484
e 231 505
e 231 530
e 231 583
e 231 626
e 231 643
e 231 678
e 231 685
e 231 733
e 231 742
e 231 802
e 231 819
e 231 841
e 231 864
e 231 913
e 231 917
e 231 937
e 231 942
e 231 957
e 231 969
e 231 971
e 232 264
e 232 316
e 232 329
e 232 343
e 232 365
e 232 384
e 232 395
e 232 397
e 232 417
e 232 433
e 232 435
e 232 445
e 232 464
e 232 495
e 232 499
e 232 544
e 232 562
e 232 564
e 232 574
e 232 575
e 232 580
e 232 598
e 232 619
e 232 622
e 232 630
e 232 631
e 232 641
e 232 680
e 232 687
e 232 700
e 232 707
e 232 724
e 232 732
e 232 743
e 232 744
e 232 746
e 232 752
e 232 807
e 232 820
e 232 872
e 232 894
e 232 908
e 232 920
e 232 927
e 232 944
e 232 949
e 232 993
e 233 260
e 233 277
e 233 279
e 233 286
e 233 317
e 233 318
e 233 344
e 233 374
e 233 406
e 233 431
e 233 463
e 233 475
e 233 562
e 233 577
e 233 584
e 233 602
e 233 629
e 233 641
e 233 655
e 233 674
e 233 728
e 233 748
e 233 759
e 233 774
e 233 790
e 233 828
e 233 845
e 233 872
e 233 876
e 233 878
e 233 961
e 233 977
e 233 979
e 233 989
e 234 341
e 234 351
e 234 419
e 234 422
e 234 424
e 234 542
e 234 602
e 234 678
e 234 689
e 234 707
e 234 738
e 234 754
e 234 755
e 234 786
e 234 819
e 234 820
e 234 828
e 234 830
e 234 851
e 234 852
e 234 895
e 234 922
e 234 939
e 234 946
e 235 291
e 235 328
e 235 348
e 235 371
e 235 378
e 235 414
e 235 420
e 235 463
e 235 471
e 235 480
e 235 494
e 235 537
e 235 543
e 235 568
e 235 628
e 235 641
e 235 672
e 235 708
e 235 709
e 235 714
e 235 742
e 235 777
e 235 780
e 235 791
e 235 814
e 235 817
e 235 821
e 235 832
e 235 841
e 235 845
e 235 877
e 235 890
e 235 891
e 235 907
e 235 909
e 235 910
e 235 928
e 235 946
e 235 949
e 236 258
e 236 268
e 236 299
e 236 303
e 236 309
e 236 313
e 236 355
e 236 366
e 236 417
e 236 418
e 236 428
e 236 431
e 236 465
e 236 469
e 236 489
e 236 491
e 236 518
e 236 521
e 236 576
e 236 579
e 236 613
e 236 654
e 236 656
e 236 661
e 236 682
e 236 685
e 236 756
e 236 794
e 236 809
e 236 814
e 236 871
e 236 872
e 236 881
e 236 924
e 236 932
e 236 946
e 236 958
e 236 966
e 236 986
e 236 987
e 237 256
e 237 280
e 237 284
e 237 293
e 237 301
e 237 334
e 237 347
e 237 351
e 237 354
e 237 421
e 237 423
e 237 458
e 237 461
e 237 492
e 237 540
e 237 614
e 237 620
e 237 627
e 237 644
e 237 676
e 237 686
e 237 690
e 237 720
e 237 736
e 237 758
e 237 760
e 237 781
e 237 790
e 237 842
e 237 879
e 237 881
e 237 887
e 237 901
e 237 917
e 237 929
e 237 933
e 237 946
e 237 951
e 237 967
e 237 975
e 237 993
e 238 257
e 238 261
e 238 281
e 238 289
e 238 306
e 238 317
e 238 319
e 238 335
e 238 350
e 238 391
e 238 401
e 238 408
e 238 413
e 238 428
e 238 441
e 238 475
e 238 535
e 238 543
e 238 553
e 238 556
e 238 566
e 238 571
e 238 705
e 238 741
e 238 767
e 238 808
e 238 810
e 238 812
e 238 816
e 238 831
e 238 846
e 238 855
e 238 871
e 238 873
e 238 902
e 238 907
e 238 920
e 238 923
e 238 941
e 238 944
e 238 970
e 238 977
e 238 978
e 239 253
e 239 264
e 239 330
e 239 339
e 239 342
e 239 386
e 239 389
e 239 397
e 239 415
e 239 446
e 239 451
e 239 459
e 239 475
e 239 514
e 239 535
e 239 544
e 239 546
e 239 549
e 239 616
e 239 630
e 239 652
e 239 675
e 239 682
e 239 734
e 239 749
e 239 766
e 239 799
e 239 808
e 239 848
e 239 863
e 239 885
e 239 898
e 239 912
e 239 931
e 239 955
e 239 977
e 240 265
e 240 266
e 240 272
e 240 273
e 240 286
e 240 313
e 240 327
e 240 359
e 240 392
e 240 415
e 240 422
e 240 434
e 240 437
e 240 485
e 240 502
e 240 503
e 240 516
e 240 526
e 240 535
e 240 561
e 240 609
e 240 686
e 240 696
e 240 724
e 240 733
e 240 735
e 240 736
e 240 760
e 240 761
e 240 831
e 240 849
e 240 885
e 240 893
e 240 912
e 240 913
e 240 959
e 240 966
e 240 995
e 240 998
e 240 999
e 241 329
e 241 332
e 241 365
e 241 375
e 241 407
e 241 419
e 241 451
e 241 464
e 241 473
e 241 484
e 241 491
e 241 499
e 241 502
e 241 520
e 241 525
e 241 566
e 241 569
e 241 589
e 241 643
e 241 678
e 241 682
e 241 702
e 241 705
e 241 741
e 241 747
e 241 750
e 241 765
e 241 780
e 241 817
e 241 873
e 241 935
e 241 937
e 241 945
e 242 261
e 242 264
e 242 337
e 242 374
e 242 376
e 242 383
e 242 399
e 242 413
e 242 426
e 242 429
e 242 463
e 242 506
e 242 507
e 242 528
e 242 564
e 242 628
e 242 653
e 242 655
e 242 712
e 242 713
e 242 718
e 242 729
e 242 731
e 242 737
e 242 769
e 242 773
e 242 776
e 242 856
e 242 865
e 242 867
e 242 916
e 242 932
e 243 284
e 243 317
e 243 328
e 243 337
e 243 376
e 243 393
e 243 399
e 243 434
e 243 445
e 243 449
e 243 485
e 243 517
e 243 553
e 243 556
e 243 559
e 243 567
e 243 606
e 243 630
e 243 633
e 243 638
e 243 646
e 243 671
e 243 696
e 243 699
e 243 773
e 243 793
e 243 832
e 243 862
e 243 865
e 243 871
e 243 893
e 243 917
e 243 941
e 243 943
e 243 944
e 243 976
e 243 982
e 244 288
e 244 318
e 244 319
e 244 332
e 244 333
e 244 364
e 244 373
e 244 376
e 244 388
e 244 397
e 244 432
e 244 445
e 244 495
e 244 502
e 244 521
e 244 524
e 244 562
e 244 576
e 244 583
e 244 592
e 244 612
e 244 630
e 244 634
e 244 656
e 244 666
e 244 704
e 244 734
e 244 747
e 244 792
e 244 819
e 244 822
e 244 837
e 244 838
e 244 879
e 244 894
e 244 909
e 244 925
e 244 963
e 244 966
e 244 972
e 244 979
e 244 981
e 244 993
e 245 279
e 245 305
e 245 311
e 245 322
e 245 328
e 245 329
e 245 332
e 245 360
e 245 370
e 245 377
e 245 404
e 245 405
e 245 412
e 245 413
e 245 497
e 245 510
e 245 552
e 245 560
e 245 586
e 245 587
e 245 592
e 245 597
e 245 600
e 245 602
e 245 631
e 245 638
e 245 640
e 245 646
e 245 663
e 245 669
e 245 678
e 245 711
e 245 733
e 245 736
e 245 794
e 245 848
e 245 864
e 245 893
e 245 950
e 245 973
e 246 252
e 246 266
e 246 279
e 246 310
e 246 348
e 246 375
e 246 391
e 246 407
e 246 413
e 246 433
e 246 454
e 246 468
e 246 499
e 246 524
e 246 528
e 246 596
e 246 626
e 246 636
e 246 663
e 246 694
e 246 823
e 246 850
e 246 871
e 246 900
e 246 901
e 246 912
e 246 923
e 246 944
e 246 957
e 246 969
e 246 971
e 246 974
e 246 990
e 247 279
e 247 281
e 247 306
e 247 316
e 247 388
e 247 398
e 247 498
e 247 503
e 247 517
e 247 521
e 247 527
e 247 532
e 247 534
e 247 535
e 247 567
e 247 585
e 247 588
e 247 610
e 247 620
e 247 633
e 247 662
e 247 671
e 247 679
e 247 711
e 247 720
e 247 730
e 247 731
e 247 860
e 247 866
e 247 870
e 247 882
e 247 884
e 247 978
e 247 986
e 248 255
e 248 279
e 248 306
e 248 337
e 248 355
e 248 403
e 248 433
e 248 471
e 248 472
e 248 502
e 248 520
e 248 522
e 248 543
e 248 561
e 248 577
e 248 598
e 248 647
e 248 678
e 248 682
e 248 697
e 248 731
e 248 754
e 248 755
e 248 775
e 248 830
e 248 845
e 248 963
e 249 272
e 249 278
e 249 290
e 249 308
e 249 330
e 249 339
e 249 342
e 249 364
e 249 379
e 249 408
e 249 429
e 249 431
e 249 454
e 249 464
e 249 473
e 249 522
e 249 559
e 249 588
e 249 643
e 249 644
e 249 658
e 249 676
e 249 686
e 249 689
e 249 705
e 249 720
e 249 774
e 249 820
e 249 828
e 249 849
e 249 851
e 249 962
e 249 980
e 250 272
e 250 275
e 250 277
e 250 340
e 250 366
e 250 393
e 250 431
e 250 436
e 250 457
e 250 471
e 250 473
e 250 514
e 250 536
e 250 610
e 250 649
e 250 709
e 250 719
e 250 722
e 250 725
e 250 737
e 250 828
e 250 858
e 250 866
e 250 884
e 250 904
e 250 916
e 250 960
e 250 974
