p edge 1000 1841
e 1 534
e 1 602
e 1 653
e 1 654
e 1 726
e 1 761
e 1 773
e 1 782
e 1 853
e 1 856
e 1 925
e 2 378
e 2 417
e 2 661
e 2 705
e 2 753
e 2 797
e 3 412
e 3 501
e 3 881
e 3 920
e 4 328
e 4 344
e 4 471
e 4 488
e 4 683
e 4 701
e 4 709
e 4 716
e 4 743
e 4 831
e 4 845
e 4 930
e 5 288
e 5 314
e 5 508
e 5 527
e 5 568
e 5 752
e 5 857
e 5 859
e 5 867
e 6 414
e 6 610
e 6 701
e 6 739
e 6 764
e 6 768
e 6 814
e 7 802
e 7 839
e 8 566
e 8 625
e 8 667
e 8 734
e 8 762
e 8 813
e 9 271
e 9 275
e 9 276
e 9 338
e 9 423
e 9 599
e 9 876
e 9 952
e 9 978
e 10 596
e 10 763
e 10 841
e 10 845
e 10 915
e 10 929
e 10 950
e 10 953
e 11 545
e 11 819
e 12 251
e 12 255
e 12 394
e 12 419
e 12 538
e 12 557
e 12 627
e 12 864
e 12 982
e 12 993
e 13 324
e 13 433
e 13 646
e 13 716
e 13 862
e 13 994
e 14 290
e 14 537
e 14 814
e 14 974
e 15 574
e 15 674
e 15 745
e 15 801
e 15 810
e 15 854
e 15 870
e 15 920
e 15 970
e 15 978
e 16 309
e 16 426
e 16 633
e 16 672
e 16 683
e 16 832
e 16 992
e 16 1000
e 17 325
e 17 381
e 17 585
e 17 615
e 17 624
e 17 662
e 17 780
e 17 823
e 17 841
e 18 319
e 18 324
e 18 545
e 18 551
e 18 606
e 18 694
e 19 313
e 19 605
e 19 634
e 19 703
e 19 729
e 19 844
e 19 916
e 20 291
e 20 333
e 20 545
e 20 616
e 20 618
e 20 747
e 20 756
e 20 770
e 20 947
e 20 962
e 21 505
e 21 539
e 21 595
e 21 653
e 21 779
e 21 788
e 21 831
e 22 308
e 22 312
e 22 432
e 22 465
e 22 480
e 22 531
e 22 560
e 22 601
e 22 606
e 22 616
e 22 657
e 22 967
e 23 253
e 23 351
e 23 363
e 23 507
e 23 529
e 23 595
e 23 641
e 23 796
e 23 866
e 24 349
e 24 424
e 24 494
e 24 531
e 24 547
e 24 562
e 24 794
e 24 868
e 24 951
e 25 346
e 25 423
e 25 498
e 25 529
e 25 576
e 25 586
e 25 587
e 25 601
e 25 637
e 25 663
e 26 307
e 26 541
e 26 542
e 26 553
e 26 679
e 27 268
e 27 506
e 27 517
e 27 520
e 27 602
e 27 609
e 27 617
e 27 823
e 27 925
e 28 340
e 28 487
e 28 652
e 28 698
e 28 708
e 29 413
e 29 557
e 29 618
e 29 749
e 29 767
e 29 811
e 29 852
e 30 297
e 30 486
e 30 504
e 30 517
e 30 666
e 30 984
e 31 273
e 31 356
e 31 411
e 31 584
e 31 632
e 31 736
e 32 456
e 32 650
e 32 879
e 33 267
e 33 570
e 33 888
e 33 922
e 34 390
e 34 499
e 34 568
e 34 767
e 34 983
e 35 311
e 35 379
e 35 453
e 35 525
e 35 801
e 35 945
e 35 955
e 36 365
e 36 366
e 36 489
e 36 715
e 36 718
e 36 725
e 36 747
e 36 762
e 36 801
e 36 836
e 37 285
e 37 343
e 37 349
e 37 458
e 37 491
e 37 507
e 37 543
e 37 672
e 37 699
e 37 938
e 38 383
e 38 388
e 38 466
e 38 588
e 38 716
e 38 789
e 38 826
e 38 966
e 39 321
e 39 370
e 39 567
e 39 683
e 39 702
e 39 731
e 39 743
e 39 807
e 39 877
e 39 939
e 40 459
e 40 502
e 40 603
e 40 707
e 40 793
e 40 805
e 40 844
e 40 933
e 40 977
e 40 998
e 41 278
e 41 296
e 41 590
e 41 591
e 41 619
e 41 860
e 41 948
e 41 979
e 42 333
e 42 336
e 42 338
e 42 390
e 42 525
e 42 987
e 43 269
e 43 316
e 43 341
e 43 406
e 43 432
e 43 458
e 43 526
e 43 635
e 43 741
e 43 841
e 43 851
e 43 961
e 43 999
e 44 328
e 44 334
e 44 394
e 44 464
e 44 536
e 45 402
e 45 539
e 45 805
e 45 864
e 45 870
e 46 535
e 46 546
e 46 665
e 46 687
e 46 733
e 46 766
e 46 838
e 46 841
e 46 902
e 47 252
e 47 445
e 47 505
e 47 593
e 47 788
e 47 903
e 47 947
e 47 971
e 48 302
e 48 345
e 48 430
e 48 559
e 48 689
e 48 771
e 48 790
e 48 808
e 48 823
e 48 832
e 48 939
e 49 531
e 49 588
e 49 914
e 49 949
e 50 280
e 50 339
e 50 591
e 50 662
e 50 694
e 50 882
e 51 277
e 51 308
e 51 331
e 51 417
e 51 530
e 51 676
e 51 954
e 52 255
e 52 348
e 52 531
e 52 620
e 52 650
e 52 814
e 52 900
e 52 932
e 53 267
e 53 484
e 53 499
e 53 548
e 53 579
e 53 715
e 53 779
e 53 817
e 54 424
e 54 469
e 54 541
e 54 582
e 54 705
e 54 802
e 54 846
e 54 889
e 54 1000
e 55 256
e 55 349
e 55 356
e 55 851
e 55 960
e 56 439
e 56 566
e 56 622
e 56 804
e 56 897
e 56 911
e 56 948
e 57 295
e 57 855
e 57 890
e 58 292
e 58 911
e 58 964
e 59 270
e 59 291
e 59 302
e 59 537
e 59 637
e 59 739
e 59 768
e 59 784
e 59 963
e 60 262
e 60 333
e 60 452
e 60 471
e 60 534
e 60 540
e 60 608
e 60 689
e 60 786
e 61 268
e 61 338
e 61 432
e 61 533
e 61 906
e 61 908
e 61 926
e 62 280
e 62 284
e 62 324
e 62 534
e 62 541
e 62 602
e 62 759
e 62 798
e 62 968
e 63 289
e 63 296
e 63 311
e 63 317
e 63 554
e 63 596
e 63 602
e 63 666
e 63 760
e 63 804
e 63 871
e 64 269
e 64 278
e 64 422
e 64 454
e 64 460
e 64 472
e 64 560
e 64 613
e 64 652
e 65 333
e 65 496
e 65 513
e 65 649
e 65 667
e 65 668
e 65 723
e 65 786
e 65 860
e 65 877
e 65 995
e 66 253
e 66 551
e 66 814
e 66 913
e 67 300
e 67 337
e 67 492
e 67 701
e 67 722
e 67 765
e 67 834
e 68 322
e 68 359
e 68 403
e 68 467
e 68 480
e 68 587
e 68 644
e 68 727
e 68 822
e 68 828
e 68 830
e 69 325
e 69 381
e 69 419
e 69 423
e 69 577
e 69 715
e 69 751
e 69 848
e 70 340
e 70 444
e 70 475
e 70 494
e 70 546
e 70 573
e 70 585
e 70 808
e 70 827
e 71 381
e 71 509
e 71 572
e 71 643
e 71 674
e 71 860
e 72 475
e 72 556
e 72 658
e 72 683
e 72 890
e 72 908
e 72 919
e 73 279
e 73 318
e 73 391
e 73 502
e 73 777
e 73 877
e 74 383
e 74 443
e 74 533
e 74 705
e 74 828
e 74 926
e 75 266
e 75 543
e 75 567
e 75 584
e 75 617
e 75 824
e 75 828
e 75 991
e 76 532
e 76 543
e 76 545
e 76 641
e 76 660
e 76 747
e 76 778
e 76 949
e 76 991
e 77 267
e 77 386
e 77 429
e 77 441
e 77 471
e 77 592
e 77 636
e 77 651
e 77 689
e 77 710
e 78 304
e 78 359
e 78 521
e 78 523
e 78 735
e 78 785
e 78 851
e 79 263
e 79 485
e 79 545
e 79 650
e 79 651
e 79 660
e 79 966
e 80 410
e 80 483
e 80 517
e 80 704
e 80 793
e 80 861
e 80 893
e 81 334
e 81 374
e 81 382
e 81 568
e 82 277
e 82 394
e 82 587
e 82 632
e 82 720
e 82 748
e 82 790
e 83 486
e 83 490
e 83 587
e 83 624
e 83 694
e 83 787
e 83 954
e 83 983
e 83 996
e 84 306
e 84 337
e 84 368
e 84 523
e 84 584
e 84 712
e 84 891
e 84 924
e 85 306
e 85 400
e 85 411
e 85 438
e 85 911
e 86 419
e 86 456
e 86 580
e 86 617
e 86 832
e 86 856
e 86 974
e 86 992
e 87 375
e 87 762
e 87 805
e 87 829
e 88 414
e 88 458
e 88 589
e 88 660
e 88 792
e 88 846
e 88 915
e 88 974
e 89 282
e 89 301
e 89 436
e 89 642
e 90 300
e 90 360
e 90 400
e 90 509
e 90 583
e 90 623
e 90 686
e 90 707
e 90 804
e 90 853
e 90 934
e 90 971
e 91 327
e 91 476
e 91 566
e 91 612
e 91 660
e 91 736
e 91 795
e 91 933
e 91 963
e 91 981
e 92 315
e 92 341
e 92 372
e 92 662
e 92 814
e 92 995
e 93 256
e 93 377
e 93 424
e 93 435
e 93 655
e 93 679
e 93 709
e 93 733
e 93 774
e 93 798
e 93 890
e 94 265
e 94 267
e 94 283
e 94 419
e 94 473
e 94 501
e 94 585
e 94 706
e 94 718
e 94 854
e 94 876
e 95 298
e 95 325
e 95 346
e 95 387
e 95 450
e 95 532
e 95 554
e 95 620
e 95 628
e 95 773
e 95 905
e 95 951
e 96 268
e 96 411
e 96 435
e 96 631
e 96 669
e 96 676
e 96 724
e 96 813
e 97 264
e 97 397
e 97 732
e 97 855
e 97 938
e 98 295
e 98 306
e 98 360
e 98 377
e 98 539
e 98 632
e 98 706
e 98 707
e 98 736
e 98 807
e 98 919
e 99 373
e 99 397
e 99 625
e 99 781
e 100 598
e 100 667
e 100 705
e 100 821
e 100 918
e 100 947
e 101 308
e 101 378
e 101 583
e 102 281
e 102 423
e 102 461
e 102 617
e 102 624
e 102 646
e 102 662
e 102 829
e 102 831
e 103 275
e 103 333
e 103 412
e 103 471
e 103 548
e 103 743
e 103 962
e 104 350
e 104 458
e 104 930
e 105 406
e 105 592
e 105 598
e 105 699
e 105 841
e 105 913
e 106 661
e 106 676
e 106 997
e 107 252
e 107 331
e 107 425
e 107 440
e 107 453
e 107 642
e 107 689
e 107 741
e 107 774
e 107 931
e 108 289
e 108 416
e 108 422
e 108 577
e 108 826
e 108 931
e 108 940
e 109 402
e 109 494
e 109 613
e 109 854
e 109 887
e 110 354
e 110 357
e 110 362
e 110 702
e 110 742
e 110 826
e 110 883
e 110 945
e 110 974
e 110 981
e 111 327
e 111 455
e 111 485
e 111 518
e 111 540
e 111 617
e 111 724
e 111 791
e 111 797
e 112 501
e 112 557
e 112 662
e 112 872
e 112 897
e 113 414
e 113 491
e 113 659
e 113 987
e 114 330
e 114 470
e 114 698
e 114 735
e 114 736
e 115 405
e 115 510
e 115 524
e 115 594
e 115 664
e 116 304
e 116 353
e 116 375
e 116 466
e 116 694
e 116 730
e 116 808
e 116 809
e 116 873
e 116 931
e 117 373
e 117 374
e 117 549
e 117 624
e 117 665
e 117 812
e 117 887
e 117 962
e 117 971
e 118 554
e 118 720
e 119 275
e 119 487
e 119 585
e 119 631
e 119 737
e 119 769
e 119 813
e 119 893
e 119 976
e 120 370
e 120 403
e 120 428
e 120 504
e 120 509
e 120 550
e 120 607
e 120 732
e 120 837
e 120 972
e 121 458
e 121 609
e 121 668
e 121 935
e 121 996
e 122 254
e 122 260
e 122 278
e 122 405
e 122 467
e 122 504
e 122 539
e 122 666
e 122 668
e 122 791
e 122 852
e 122 931
e 123 275
e 123 331
e 123 460
e 123 845
e 123 870
e 123 992
e 124 440
e 124 508
e 124 665
e 124 669
e 124 777
e 124 812
e 124 824
e 125 358
e 125 362
e 125 437
e 125 451
e 125 560
e 125 593
e 125 839
e 125 921
e 125 941
e 126 401
e 126 414
e 126 520
e 126 536
e 126 566
e 126 650
e 126 686
e 127 327
e 127 406
e 127 497
e 127 504
e 127 505
e 127 513
e 127 586
e 127 608
e 127 615
e 127 704
e 127 847
e 128 322
e 128 430
e 128 593
e 128 715
e 128 754
e 128 780
e 128 798
e 128 824
e 129 397
e 129 412
e 129 486
e 129 560
e 129 634
e 129 736
e 129 792
e 129 863
e 129 871
e 130 263
e 130 267
e 130 288
e 130 289
e 130 387
e 130 452
e 130 464
e 130 634
e 130 654
e 130 791
e 130 840
e 130 848
e 130 971
e 131 261
e 131 420
e 131 433
e 131 504
e 131 575
e 131 583
e 131 762
e 131 776
e 131 927
e 131 999
e 132 297
e 132 503
e 132 619
e 132 642
e 132 670
e 132 685
e 133 327
e 133 518
e 133 614
e 133 808
e 134 340
e 134 376
e 134 407
e 134 545
e 134 670
e 134 832
e 134 935
e 134 965
e 135 430
e 135 447
e 135 513
e 135 517
e 135 652
e 135 909
e 136 252
e 136 329
e 136 340
e 136 380
e 136 544
e 136 563
e 136 715
e 136 729
e 136 742
e 136 822
e 136 977
e 137 265
e 137 312
e 137 491
e 137 562
e 137 570
e 137 695
e 137 764
e 138 256
e 138 383
e 138 451
e 138 469
e 138 474
e 138 559
e 138 619
e 138 631
e 138 718
e 138 807
e 138 836
e 138 845
e 138 937
e 139 253
e 139 418
e 139 426
e 139 484
e 139 516
e 139 523
e 139 554
e 139 689
e 139 795
e 139 819
e 139 872
e 139 877
e 139 931
e 139 935
e 139 991
e 140 300
e 140 355
e 140 642
e 140 663
e 140 862
e 140 878
e 140 952
e 141 324
e 141 557
e 141 882
e 142 567
e 142 663
e 142 741
e 142 766
e 142 848
e 142 996
e 142 999
e 143 332
e 143 416
e 143 457
e 143 517
e 143 784
e 143 847
e 143 912
e 144 374
e 144 539
e 144 880
e 144 972
e 145 529
e 145 704
e 145 904
e 145 956
e 145 969
e 145 972
e 146 383
e 146 385
e 146 419
e 146 435
e 146 517
e 146 549
e 146 741
e 146 759
e 146 770
e 146 834
e 146 974
e 146 987
e 146 988
e 147 266
e 147 345
e 147 427
e 147 499
e 147 607
e 147 720
e 147 988
e 148 292
e 148 437
e 148 438
e 148 730
e 148 824
e 148 944
e 149 310
e 149 536
e 149 559
e 149 675
e 149 755
e 149 818
e 149 893
e 150 387
e 150 444
e 150 462
e 150 563
e 150 843
e 150 868
e 150 985
e 151 394
e 151 436
e 151 497
e 151 692
e 151 709
e 151 746
e 152 510
e 152 652
e 152 659
e 152 724
e 152 807
e 152 993
e 153 271
e 153 361
e 153 397
e 153 451
e 153 453
e 153 490
e 153 658
e 153 684
e 154 300
e 154 309
e 154 745
e 154 807
e 154 904
e 154 921
e 154 990
e 155 251
e 155 424
e 155 461
e 155 584
e 155 662
e 155 711
e 155 796
e 155 799
e 155 954
e 156 405
e 156 621
e 156 671
e 156 796
e 156 976
e 157 259
e 157 334
e 157 426
e 157 457
e 157 510
e 157 690
e 157 701
e 158 282
e 158 386
e 158 444
e 158 511
e 158 593
e 158 660
e 158 686
e 158 909
e 159 367
e 159 400
e 159 448
e 159 510
e 159 599
e 159 722
e 159 906
e 160 379
e 160 444
e 160 453
e 160 468
e 160 550
e 160 567
e 160 813
e 161 303
e 161 560
e 161 680
e 162 584
e 162 604
e 162 814
e 162 854
e 162 899
e 162 918
e 162 970
e 163 318
e 163 336
e 163 481
e 163 579
e 163 586
e 163 602
e 163 613
e 163 626
e 163 748
e 164 553
e 164 717
e 164 760
e 164 800
e 164 820
e 165 280
e 165 435
e 165 662
e 165 693
e 165 708
e 166 414
e 166 416
e 166 483
e 166 742
e 166 817
e 166 845
e 166 855
e 167 805
e 168 258
e 168 268
e 168 318
e 168 373
e 168 441
e 169 314
e 169 422
e 169 430
e 169 554
e 169 616
e 169 674
e 169 679
e 169 745
e 169 749
e 169 833
e 169 888
e 169 963
e 169 974
e 169 981
e 170 383
e 170 389
e 170 479
e 170 488
e 170 503
e 170 755
e 170 810
e 170 814
e 170 998
e 171 295
e 171 307
e 171 316
e 171 410
e 171 475
e 171 515
e 171 556
e 171 567
e 171 734
e 171 948
e 172 356
e 172 419
e 172 442
e 172 544
e 172 695
e 173 261
e 173 348
e 173 428
e 173 458
e 173 496
e 173 534
e 173 568
e 173 596
e 173 718
e 173 800
e 173 828
e 173 872
e 173 944
e 174 364
e 174 505
e 174 761
e 174 765
e 174 794
e 174 877
e 174 883
e 175 272
e 175 415
e 175 479
e 175 726
e 175 757
e 175 830
e 175 873
e 175 984
e 176 279
e 176 312
e 176 430
e 176 722
e 177 266
e 177 493
e 177 514
e 177 537
e 177 610
e 177 913
e 178 268
e 178 321
e 178 352
e 178 508
e 178 742
e 178 836
e 179 264
e 179 342
e 179 351
e 179 441
e 179 448
e 179 495
e 179 551
e 179 578
e 179 681
e 179 772
e 179 784
e 179 809
e 179 860
e 179 886
e 179 933
e 179 970
e 179 978
e 180 312
e 180 763
e 180 851
e 181 594
e 181 939
e 182 297
e 182 535
e 182 627
e 182 855
e 182 868
e 182 916
e 182 972
e 183 665
e 183 707
e 184 292
e 184 396
e 184 443
e 184 577
e 184 647
e 184 706
e 184 730
e 184 748
e 184 784
e 184 823
e 184 994
e 185 298
e 185 372
e 185 603
e 186 321
e 186 353
e 186 357
e 186 690
e 186 764
e 186 860
e 186 862
e 186 922
e 187 490
e 187 509
e 187 517
e 187 684
e 187 735
e 187 743
e 187 959
e 187 975
e 188 309
e 188 329
e 188 425
e 188 481
e 188 751
e 188 784
e 188 923
e 189 254
e 189 269
e 189 331
e 189 343
e 189 372
e 189 418
e 189 841
e 189 864
e 189 913
e 189 986
e 190 291
e 190 325
e 190 339
e 190 514
e 190 603
e 190 623
e 190 708
e 190 770
e 190 853
e 190 933
e 190 954
e 191 343
e 191 445
e 191 465
e 191 502
e 191 662
e 191 715
e 191 761
e 191 804
e 191 884
e 191 893
e 191 902
e 191 927
e 192 286
e 192 819
e 192 840
e 192 914
e 193 290
e 193 332
e 193 446
e 193 461
e 193 522
e 193 753
e 193 787
e 193 830
e 193 833
e 194 279
e 194 324
e 194 385
e 194 392
e 194 419
e 194 451
e 194 633
e 194 711
e 194 780
e 194 884
e 194 924
e 195 462
e 195 463
e 195 678
e 195 744
e 195 814
e 195 853
e 195 928
e 196 392
e 196 396
e 196 610
e 196 630
e 196 640
e 196 967
e 197 683
e 197 783
e 197 877
e 197 898
e 198 302
e 198 318
e 198 336
e 198 431
e 198 481
e 198 491
e 198 704
e 198 933
e 198 971
e 199 451
e 199 495
e 199 624
e 199 696
e 199 764
e 199 765
e 199 794
e 199 915
e 199 957
e 200 255
e 200 296
e 200 465
e 200 597
e 200 777
e 200 815
e 200 868
e 201 409
e 201 431
e 201 766
e 201 843
e 201 887
e 201 909
e 202 426
e 202 461
e 202 859
e 202 918
e 202 928
e 203 287
e 203 496
e 203 689
e 203 786
e 203 950
e 204 572
e 204 693
e 204 777
e 204 799
e 204 936
e 204 947
e 205 369
e 205 383
e 205 519
e 205 677
e 205 795
e 205 810
e 205 878
e 205 972
e 206 256
e 206 348
e 206 453
e 206 568
e 206 736
e 206 776
e 206 829
e 206 898
e 206 910
e 206 991
e 207 282
e 207 291
e 207 304
e 207 411
e 207 430
e 207 604
e 207 799
e 207 814
e 208 448
e 208 609
e 208 665
e 208 690
e 208 756
e 208 882
e 209 270
e 209 445
e 209 463
e 209 587
e 209 642
e 209 742
e 209 744
e 210 273
e 210 282
e 210 295
e 210 330
e 210 403
e 210 421
e 210 705
e 210 725
e 210 805
e 211 459
e 211 501
e 211 685
e 211 830
e 211 882
e 211 955
e 211 959
e 212 275
e 212 348
e 212 357
e 212 803
e 212 861
e 212 910
e 212 920
e 213 269
e 213 335
e 213 884
e 213 902
e 214 298
e 214 369
e 214 375
e 214 502
e 214 785
e 214 887
e 214 954
e 215 329
e 215 474
e 215 506
e 215 716
e 215 853
e 215 972
e 216 326
e 216 468
e 216 792
e 217 303
e 217 304
e 217 341
e 217 639
e 217 691
e 217 900
e 217 974
e 218 305
e 218 508
e 218 528
e 218 604
e 218 615
e 218 743
e 218 860
e 218 910
e 218 911
e 219 495
e 219 624
e 219 630
e 219 818
e 219 908
e 219 935
e 220 401
e 220 490
e 220 824
e 220 840
e 220 864
e 220 940
e 220 962
e 221 277
e 221 349
e 221 355
e 221 407
e 221 418
e 221 559
e 221 572
e 221 580
e 221 799
e 221 814
e 221 995
e 222 392
e 222 432
e 222 441
e 222 456
e 222 484
e 222 604
e 222 976
e 223 783
e 223 920
e 223 926
e 223 966
e 224 292
e 224 520
e 224 548
e 224 560
e 224 725
e 224 802
e 225 411
e 225 494
e 225 558
e 225 593
e 225 648
e 225 723
e 225 819
e 225 942
e 226 348
e 226 358
e 226 360
e 226 367
e 226 569
e 226 599
e 227 439
e 227 487
e 227 636
e 227 653
e 227 841
e 227 870
e 227 897
e 227 959
e 228 265
e 228 280
e 228 441
e 228 582
e 228 687
e 228 763
e 228 845
e 228 874
e 228 941
e 229 509
e 229 723
e 229 728
e 229 760
e 229 915
e 230 499
e 230 572
e 230 644
e 230 796
e 230 809
e 230 885
e 231 254
e 231 302
e 231 454
e 231 580
e 231 725
e 231 778
e 231 915
e 231 969
e 232 373
e 232 397
e 232 472
e 232 751
e 232 754
e 232 796
e 232 891
e 232 901
e 232 952
e 232 987
e 233 283
e 233 336
e 233 413
e 233 710
e 233 812
e 233 954
e 233 975
e 234 323
e 234 409
e 234 439
e 234 500
e 234 526
e 234 552
e 234 584
e 234 690
e 234 784
e 234 833
e 235 259
e 235 304
e 235 433
e 235 559
e 235 694
e 235 709
e 235 778
e 235 955
e 235 961
e 236 338
e 236 409
e 236 575
e 236 680
e 236 692
e 236 794
e 236 802
e 236 804
e 237 328
e 237 330
e 237 334
e 237 338
e 237 383
e 237 424
e 237 432
e 237 743
e 237 755
e 237 793
e 237 804
e 237 848
e 237 912
e 238 353
e 238 779
e 238 870
e 238 914
e 239 265
e 239 578
e 239 591
e 239 628
e 239 658
e 239 709
e 239 983
e 240 295
e 240 438
e 240 541
e 240 562
e 240 583
e 240 683
e 240 688
e 240 756
e 240 788
e 241 499
e 241 718
e 241 805
e 242 404
e 242 512
e 242 640
e 242 863
e 242 883
e 242 918
e 242 955
e 243 264
e 243 283
e 243 296
e 243 303
e 243 324
e 243 349
e 243 358
e 243 385
e 243 526
e 243 791
e 243 803
e 243 902
e 243 929
e 243 951
e 244 261
e 244 305
e 245 429
e 245 574
e 245 598
e 245 813
e 245 941
e 246 617
e 246 736
e 246 930
e 246 978
e 247 264
e 247 369
e 247 415
e 247 466
e 247 538
e 247 561
e 247 623
e 247 686
e 247 757
e 247 769
e 247 770
e 247 982
e 247 997
e 248 434
e 248 564
e 248 765
e 248 842
e 248 944
e 249 289
e 249 633
e 249 689
e 249 741
e 249 805
e 249 814
e 250 260
e 250 438
e 250 546
e 250 558
e 250 623
e 250 624
e 250 656
e 250 705
