p edge 1000 18581
e 1 255
e 1 261
e 1 270
e 1 290
e 1 298
e 1 300
e 1 317
e 1 319
e 1 324
e 1 325
e 1 341
e 1 378
e 1 382
e 1 399
e 1 400
e 1 403
e 1 406
e 1 409
e 1 428
e 1 453
e 1 475
e 1 481
e 1 484
e 1 490
e 1 500
e 1 506
e 1 507
e 1 509
e 1 525
e 1 538
e 1 551
e 1 557
e 1 574
e 1 575
e 1 583
e 1 586
e 1 596
e 1 608
e 1 622
e 1 633
e 1 648
e 1 653
e 1 654
e 1 659
e 1 666
e 1 672
e 1 681
e 1 698
e 1 725
e 1 728
e 1 745
e 1 746
e 1 748
e 1 773
e 1 775
e 1 777
e 1 780
e 1 797
e 1 811
e 1 820
e 1 827
e 1 840
e 1 858
e 1 864
e 1 893
e 1 905
e 1 918
e 1 948
e 1 950
e 1 957
e 1 960
e 1 966
e 1 967
e 1 977
e 1 984
e 1 987
e 1 995
e 2 258
e 2 259
e 2 267
e 2 271
e 2 276
e 2 279
e 2 280
e 2 292
e 2 303
e 2 305
e 2 324
e 2 327
e 2 346
e 2 348
e 2 349
e 2 353
e 2 360
e 2 372
e 2 375
e 2 386
e 2 397
e 2 403
e 2 408
e 2 419
e 2 422
e 2 426
e 2 430
e 2 431
e 2 436
e 2 496
e 2 505
e 2 515
e 2 516
e 2 534
e 2 540
e 2 545
e 2 547
e 2 552
e 2 558
e 2 566
e 2 606
e 2 610
e 2 614
e 2 635
e 2 650
e 2 664
e 2 676
e 2 681
e 2 705
e 2 718
e 2 732
e 2 733
e 2 736
e 2 748
e 2 778
e 2 781
e 2 789
e 2 800
e 2 804
e 2 806
e 2 808
e 2 819
e 2 824
e 2 828
e 2 834
e 2 850
e 2 851
e 2 871
e 2 879
e 2 880
e 2 883
e 2 885
e 2 887
e 2 889
e 2 894
e 2 912
e 2 919
e 2 925
e 2 944
e 2 976
e 2 978
e 2 990
e 2 991
e 3 253
e 3 269
e 3 272
e 3 285
e 3 287
e 3 292
e 3 297
e 3 308
e 3 315
e 3 323
e 3 324
e 3 334
e 3 341
e 3 346
e 3 361
e 3 388
e 3 389
e 3 399
e 3 401
e 3 448
e 3 459
e 3 468
e 3 480
e 3 483
e 3 488
e 3 493
e 3 518
e 3 527
e 3 531
e 3 542
e 3 546
e 3 564
e 3 581
e 3 586
e 3 589
e 3 591
e 3 594
e 3 603
e 3 616
e 3 617
e 3 618
e 3 624
e 3 653
e 3 660
e 3 679
e 3 710
e 3 713
e 3 743
e 3 747
e 3 759
e 3 792
e 3 802
e 3 814
e 3 816
e 3 817
e 3 820
e 3 861
e 3 886
e 3 921
e 3 926
e 3 927
e 3 933
e 3 936
e 3 945
e 3 959
e 3 962
e 3 972
e 3 973
e 3 981
e 3 985
e 4 255
e 4 258
e 4 259
e 4 278
e 4 284
e 4 286
e 4 287
e 4 297
e 4 304
e 4 307
e 4 337
e 4 344
e 4 346
e 4 350
e 4 351
e 4 363
e 4 376
e 4 395
e 4 403
e 4 429
e 4 437
e 4 441
e 4 480
e 4 484
e 4 495
e 4 496
e 4 501
e 4 506
e 4 526
e 4 528
e 4 533
e 4 534
e 4 539
e 4 549
e 4 580
e 4 603
e 4 607
e 4 611
e 4 646
e 4 660
e 4 663
e 4 665
e 4 668
e 4 699
e 4 735
e 4 738
e 4 740
e 4 773
e 4 793
e 4 795
e 4 799
e 4 807
e 4 820
e 4 836
e 4 849
e 4 859
e 4 883
e 4 886
e 4 893
e 4 911
e 4 913
e 4 926
e 4 932
e 4 940
e 4 954
e 4 958
e 4 965
e 4 968
e 4 970
e 4 999
e 5 265
e 5 277
e 5 284
e 5 285
e 5 291
e 5 292
e 5 295
e 5 311
e 5 326
e 5 334
e 5 342
e 5 349
e 5 370
e 5 374
e 5 378
e 5 384
e 5 397
e 5 403
e 5 439
e 5 486
e 5 488
e 5 511
e 5 515
e 5 516
e 5 518
e 5 522
e 5 525
e 5 527
e 5 546
e 5 555
e 5 559
e 5 571
e 5 572
e 5 583
e 5 585
e 5 595
e 5 598
e 5 619
e 5 623
e 5 629
e 5 634
e 5 640
e 5 655
e 5 659
e 5 661
e 5 671
e 5 678
e 5 680
e 5 682
e 5 693
e 5 711
e 5 722
e 5 729
e 5 767
e 5 771
e 5 780
e 5 811
e 5 831
e 5 836
e 5 843
e 5 863
e 5 864
e 5 869
e 5 871
e 5 881
e 5 907
e 5 922
e 5 935
e 5 961
e 5 970
e 5 977
e 5 983
e 5 985
e 5 987
e 5 991
e 5 994
e 6 255
e 6 259
e 6 307
e 6 308
e 6 319
e 6 329
e 6 331
e 6 344
e 6 347
e 6 351
e 6 364
e 6 382
e 6 386
e 6 389
e 6 391
e 6 392
e 6 417
e 6 420
e 6 430
e 6 432
e 6 433
e 6 437
e 6 449
e 6 451
e 6 453
e 6 461
e 6 486
e 6 520
e 6 527
e 6 564
e 6 586
e 6 591
e 6 594
e 6 600
e 6 605
e 6 633
e 6 647
e 6 671
e 6 683
e 6 685
e 6 689
e 6 708
e 6 712
e 6 760
e 6 783
e 6 785
e 6 806
e 6 811
e 6 816
e 6 825
e 6 848
e 6 874
e 6 907
e 6 909
e 6 918
e 6 923
e 6 925
e 6 926
e 6 930
e 6 940
e 6 949
e 6 955
e 6 963
e 6 979
e 6 992
e 6 996
e 7 290
e 7 315
e 7 321
e 7 323
e 7 329
e 7 342
e 7 346
e 7 347
e 7 354
e 7 358
e 7 375
e 7 378
e 7 392
e 7 399
e 7 408
e 7 414
e 7 415
e 7 420
e 7 424
e 7 430
e 7 433
e 7 439
e 7 447
e 7 462
e 7 463
e 7 470
e 7 471
e 7 486
e 7 488
e 7 537
e 7 538
e 7 543
e 7 545
e 7 563
e 7 566
e 7 579
e 7 585
e 7 589
e 7 605
e 7 622
e 7 633
e 7 655
e 7 665
e 7 667
e 7 672
e 7 673
e 7 682
e 7 688
e 7 707
e 7 709
e 7 712
e 7 721
e 7 728
e 7 760
e 7 776
e 7 797
e 7 798
e 7 814
e 7 819
e 7 820
e 7 824
e 7 832
e 7 850
e 7 866
e 7 881
e 7 906
e 7 908
e 7 915
e 7 922
e 7 925
e 7 926
e 7 930
e 7 937
e 7 952
e 7 960
e 7 966
e 7 970
e 7 986
e 7 995
e 7 998
e 8 257
e 8 268
e 8 279
e 8 288
e 8 289
e 8 291
e 8 293
e 8 299
e 8 301
e 8 303
e 8 304
e 8 314
e 8 318
e 8 339
e 8 350
e 8 358
e 8 370
e 8 371
e 8 381
e 8 394
e 8 412
e 8 414
e 8 440
e 8 443
e 8 446
e 8 461
e 8 465
e 8 466
e 8 477
e 8 478
e 8 491
e 8 492
e 8 493
e 8 501
e 8 506
e 8 519
e 8 582
e 8 591
e 8 624
e 8 627
e 8 645
e 8 650
e 8 663
e 8 672
e 8 681
e 8 684
e 8 686
e 8 715
e 8 718
e 8 727
e 8 742
e 8 775
e 8 776
e 8 777
e 8 799
e 8 801
e 8 809
e 8 816
e 8 818
e 8 828
e 8 831
e 8 835
e 8 842
e 8 851
e 8 866
e 8 868
e 8 897
e 8 904
e 8 918
e 8 922
e 8 925
e 8 933
e 8 961
e 8 971
e 8 979
e 8 981
e 9 259
e 9 277
e 9 289
e 9 294
e 9 308
e 9 356
e 9 369
e 9 370
e 9 380
e 9 394
e 9 411
e 9 425
e 9 428
e 9 437
e 9 439
e 9 451
e 9 468
e 9 478
e 9 479
e 9 481
e 9 494
e 9 505
e 9 507
e 9 512
e 9 513
e 9 518
e 9 525
e 9 537
e 9 568
e 9 569
e 9 579
e 9 581
e 9 615
e 9 635
e 9 649
e 9 658
e 9 663
e 9 684
e 9 701
e 9 723
e 9 784
e 9 786
e 9 796
e 9 813
e 9 833
e 9 840
e 9 846
e 9 858
e 9 861
e 9 882
e 9 883
e 9 893
e 9 902
e 9 917
e 9 940
e 9 941
e 9 962
e 9 986
e 9 1000
e 10 275
e 10 277
e 10 285
e 10 303
e 10 322
e 10 337
e 10 341
e 10 342
e 10 370
e 10 382
e 10 383
e 10 391
e 10 420
e 10 425
e 10 428
e 10 436
e 10 439
e 10 441
e 10 444
e 10 447
e 10 452
e 10 461
e 10 473
e 10 476
e 10 483
e 10 500
e 10 510
e 10 515
e 10 533
e 10 538
e 10 609
e 10 635
e 10 647
e 10 657
e 10 661
e 10 676
e 10 703
e 10 706
e 10 726
e 10 748
e 10 753
e 10 756
e 10 757
e 10 758
e 10 767
e 10 778
e 10 780
e 10 785
e 10 795
e 10 808
e 10 813
e 10 821
e 10 850
e 10 859
e 10 865
e 10 874
e 10 875
e 10 882
e 10 913
e 10 916
e 10 923
e 10 926
e 10 938
e 10 948
e 10 963
e 10 980
e 10 996
e 11 261
e 11 270
e 11 271
e 11 272
e 11 287
e 11 288
e 11 325
e 11 337
e 11 343
e 11 355
e 11 393
e 11 398
e 11 413
e 11 419
e 11 429
e 11 448
e 11 454
e 11 475
e 11 487
e 11 499
e 11 513
e 11 521
e 11 549
e 11 554
e 11 556
e 11 582
e 11 587
e 11 620
e 11 622
e 11 632
e 11 643
e 11 664
e 11 680
e 11 690
e 11 693
e 11 701
e 11 705
e 11 734
e 11 744
e 11 751
e 11 754
e 11 757
e 11 770
e 11 775
e 11 783
e 11 794
e 11 797
e 11 800
e 11 807
e 11 834
e 11 868
e 11 873
e 11 874
e 11 889
e 11 899
e 11 905
e 11 915
e 11 925
e 11 955
e 11 957
e 11 970
e 11 971
e 11 974
e 11 979
e 11 980
e 11 983
e 11 995
e 11 997
e 12 252
e 12 254
e 12 257
e 12 290
e 12 297
e 12 300
e 12 307
e 12 316
e 12 329
e 12 330
e 12 333
e 12 342
e 12 345
e 12 347
e 12 348
e 12 355
e 12 359
e 12 388
e 12 399
e 12 414
e 12 424
e 12 426
e 12 427
e 12 461
e 12 463
e 12 476
e 12 480
e 12 483
e 12 502
e 12 504
e 12 518
e 12 540
e 12 565
e 12 574
e 12 585
e 12 598
e 12 608
e 12 618
e 12 627
e 12 636
e 12 637
e 12 638
e 12 646
e 12 652
e 12 660
e 12 668
e 12 671
e 12 684
e 12 694
e 12 697
e 12 698
e 12 753
e 12 758
e 12 767
e 12 768
e 12 780
e 12 792
e 12 801
e 12 811
e 12 819
e 12 836
e 12 855
e 12 857
e 12 860
e 12 863
e 12 864
e 12 878
e 12 887
e 12 893
e 12 898
e 12 901
e 12 902
e 12 903
e 12 913
e 12 925
e 12 947
e 12 954
e 12 969
e 12 986
e 13 257
e 13 261
e 13 274
e 13 296
e 13 298
e 13 314
e 13 348
e 13 350
e 13 352
e 13 355
e 13 361
e 13 376
e 13 382
e 13 388
e 13 393
e 13 406
e 13 416
e 13 417
e 13 420
e 13 470
e 13 478
e 13 489
e 13 495
e 13 525
e 13 543
e 13 546
e 13 556
e 13 560
e 13 586
e 13 598
e 13 602
e 13 616
e 13 655
e 13 659
e 13 662
e 13 666
e 13 668
e 13 672
e 13 692
e 13 710
e 13 715
e 13 735
e 13 751
e 13 764
e 13 771
e 13 794
e 13 832
e 13 840
e 13 856
e 13 863
e 13 894
e 13 920
e 13 922
e 13 937
e 13 941
e 13 951
e 13 957
e 13 969
e 13 973
e 13 980
e 13 990
e 13 998
e 13 999
e 14 283
e 14 292
e 14 312
e 14 322
e 14 332
e 14 341
e 14 347
e 14 348
e 14 355
e 14 357
e 14 362
e 14 369
e 14 370
e 14 378
e 14 382
e 14 400
e 14 418
e 14 429
e 14 461
e 14 483
e 14 484
e 14 489
e 14 492
e 14 510
e 14 512
e 14 514
e 14 520
e 14 522
e 14 523
e 14 532
e 14 544
e 14 561
e 14 562
e 14 563
e 14 588
e 14 590
e 14 599
e 14 607
e 14 625
e 14 629
e 14 630
e 14 631
e 14 634
e 14 652
e 14 653
e 14 662
e 14 670
e 14 674
e 14 675
e 14 676
e 14 677
e 14 682
e 14 696
e 14 706
e 14 718
e 14 720
e 14 726
e 14 739
e 14 741
e 14 747
e 14 777
e 14 786
e 14 835
e 14 849
e 14 866
e 14 879
e 14 887
e 14 904
e 14 905
e 14 911
e 14 912
e 14 914
e 14 922
e 14 924
e 14 927
e 14 930
e 14 937
e 14 960
e 14 964
e 14 967
e 14 969
e 14 977
e 14 996
e 15 273
e 15 279
e 15 294
e 15 300
e 15 316
e 15 318
e 15 320
e 15 330
e 15 365
e 15 366
e 15 370
e 15 388
e 15 398
e 15 411
e 15 424
e 15 428
e 15 445
e 15 459
e 15 460
e 15 463
e 15 467
e 15 481
e 15 482
e 15 483
e 15 518
e 15 532
e 15 533
e 15 537
e 15 540
e 15 542
e 15 587
e 15 620
e 15 625
e 15 633
e 15 642
e 15 652
e 15 654
e 15 660
e 15 666
e 15 677
e 15 685
e 15 690
e 15 706
e 15 714
e 15 722
e 15 729
e 15 736
e 15 739
e 15 745
e 15 746
e 15 750
e 15 758
e 15 770
e 15 802
e 15 825
e 15 847
e 15 848
e 15 861
e 15 866
e 15 869
e 15 875
e 15 883
e 15 891
e 15 892
e 15 906
e 15 908
e 15 923
e 15 934
e 15 938
e 15 949
e 15 969
e 15 984
e 16 255
e 16 256
e 16 259
e 16 261
e 16 272
e 16 281
e 16 283
e 16 288
e 16 304
e 16 310
e 16 316
e 16 317
e 16 337
e 16 340
e 16 350
e 16 354
e 16 389
e 16 393
e 16 394
e 16 400
e 16 425
e 16 443
e 16 458
e 16 467
e 16 482
e 16 488
e 16 489
e 16 502
e 16 510
e 16 512
e 16 519
e 16 524
e 16 525
e 16 528
e 16 535
e 16 538
e 16 543
e 16 551
e 16 575
e 16 593
e 16 618
e 16 634
e 16 635
e 16 640
e 16 642
e 16 647
e 16 651
e 16 656
e 16 668
e 16 674
e 16 676
e 16 682
e 16 688
e 16 690
e 16 705
e 16 712
e 16 721
e 16 742
e 16 752
e 16 753
e 16 762
e 16 768
e 16 770
e 16 774
e 16 816
e 16 834
e 16 835
e 16 838
e 16 844
e 16 857
e 16 861
e 16 867
e 16 870
e 16 883
e 16 889
e 16 896
e 16 901
e 16 920
e 16 925
e 16 936
e 16 941
e 16 945
e 16 954
e 16 958
e 16 964
e 17 252
e 17 254
e 17 256
e 17 259
e 17 261
e 17 274
e 17 286
e 17 291
e 17 300
e 17 309
e 17 319
e 17 322
e 17 324
e 17 346
e 17 353
e 17 402
e 17 411
e 17 418
e 17 432
e 17 447
e 17 453
e 17 460
e 17 464
e 17 465
e 17 486
e 17 495
e 17 534
e 17 556
e 17 563
e 17 583
e 17 588
e 17 600
e 17 601
e 17 624
e 17 646
e 17 652
e 17 654
e 17 669
e 17 679
e 17 684
e 17 706
e 17 708
e 17 715
e 17 716
e 17 731
e 17 738
e 17 740
e 17 750
e 17 754
e 17 762
e 17 769
e 17 771
e 17 784
e 17 805
e 17 813
e 17 829
e 17 831
e 17 835
e 17 840
e 17 841
e 17 844
e 17 855
e 17 862
e 17 870
e 17 872
e 17 875
e 17 898
e 17 932
e 17 939
e 17 953
e 17 954
e 17 960
e 17 975
e 17 981
e 17 997
e 17 999
e 18 262
e 18 273
e 18 278
e 18 284
e 18 299
e 18 302
e 18 310
e 18 315
e 18 317
e 18 337
e 18 353
e 18 363
e 18 374
e 18 380
e 18 389
e 18 398
e 18 400
e 18 412
e 18 432
e 18 433
e 18 437
e 18 450
e 18 462
e 18 474
e 18 497
e 18 500
e 18 505
e 18 519
e 18 527
e 18 528
e 18 540
e 18 544
e 18 560
e 18 567
e 18 577
e 18 581
e 18 582
e 18 603
e 18 605
e 18 615
e 18 627
e 18 628
e 18 629
e 18 632
e 18 637
e 18 640
e 18 644
e 18 648
e 18 650
e 18 651
e 18 689
e 18 692
e 18 699
e 18 705
e 18 707
e 18 716
e 18 728
e 18 757
e 18 790
e 18 796
e 18 834
e 18 856
e 18 867
e 18 873
e 18 881
e 18 890
e 18 903
e 18 907
e 18 916
e 18 919
e 18 923
e 18 947
e 18 960
e 18 967
e 18 970
e 18 976
e 18 984
e 18 994
e 19 262
e 19 313
e 19 335
e 19 339
e 19 371
e 19 376
e 19 381
e 19 383
e 19 387
e 19 392
e 19 395
e 19 409
e 19 414
e 19 425
e 19 435
e 19 436
e 19 441
e 19 444
e 19 463
e 19 469
e 19 483
e 19 485
e 19 503
e 19 558
e 19 559
e 19 575
e 19 578
e 19 581
e 19 583
e 19 586
e 19 592
e 19 600
e 19 611
e 19 621
e 19 622
e 19 635
e 19 649
e 19 667
e 19 696
e 19 699
e 19 714
e 19 752
e 19 764
e 19 767
e 19 770
e 19 772
e 19 773
e 19 780
e 19 782
e 19 790
e 19 805
e 19 813
e 19 817
e 19 826
e 19 827
e 19 828
e 19 833
e 19 848
e 19 867
e 19 873
e 19 881
e 19 898
e 19 908
e 19 911
e 19 955
e 19 958
e 19 966
e 19 969
e 19 972
e 19 987
e 19 988
e 19 1000
e 20 275
e 20 308
e 20 318
e 20 322
e 20 324
e 20 329
e 20 350
e 20 354
e 20 358
e 20 369
e 20 391
e 20 392
e 20 408
e 20 409
e 20 430
e 20 450
e 20 460
e 20 465
e 20 466
e 20 469
e 20 490
e 20 502
e 20 511
e 20 536
e 20 549
e 20 601
e 20 605
e 20 614
e 20 621
e 20 643
e 20 655
e 20 690
e 20 694
e 20 703
e 20 710
e 20 713
e 20 720
e 20 722
e 20 733
e 20 742
e 20 755
e 20 764
e 20 766
e 20 769
e 20 770
e 20 776
e 20 782
e 20 791
e 20 794
e 20 796
e 20 805
e 20 809
e 20 811
e 20 837
e 20 839
e 20 841
e 20 846
e 20 859
e 20 868
e 20 875
e 20 886
e 20 888
e 20 892
e 20 894
e 20 925
e 20 929
e 20 934
e 20 939
e 20 942
e 20 954
e 20 981
e 20 997
e 21 256
e 21 259
e 21 269
e 21 273
e 21 280
e 21 284
e 21 290
e 21 303
e 21 308
e 21 314
e 21 316
e 21 319
e 21 324
e 21 333
e 21 360
e 21 413
e 21 425
e 21 439
e 21 449
e 21 461
e 21 470
e 21 475
e 21 479
e 21 494
e 21 507
e 21 524
e 21 527
e 21 548
e 21 564
e 21 566
e 21 599
e 21 601
e 21 640
e 21 650
e 21 655
e 21 659
e 21 660
e 21 665
e 21 674
e 21 708
e 21 716
e 21 723
e 21 729
e 21 734
e 21 748
e 21 767
e 21 784
e 21 788
e 21 789
e 21 794
e 21 799
e 21 821
e 21 822
e 21 847
e 21 852
e 21 876
e 21 886
e 21 895
e 21 896
e 21 899
e 21 907
e 21 915
e 21 922
e 21 928
e 21 930
e 21 951
e 21 956
e 21 965
e 21 966
e 21 972
e 21 974
e 21 977
e 21 982
e 21 988
e 22 255
e 22 258
e 22 262
e 22 267
e 22 284
e 22 293
e 22 298
e 22 325
e 22 331
e 22 336
e 22 385
e 22 389
e 22 390
e 22 395
e 22 396
e 22 401
e 22 402
e 22 429
e 22 430
e 22 465
e 22 482
e 22 494
e 22 495
e 22 519
e 22 521
e 22 529
e 22 534
e 22 536
e 22 550
e 22 552
e 22 566
e 22 575
e 22 577
e 22 579
e 22 581
e 22 584
e 22 612
e 22 633
e 22 641
e 22 643
e 22 645
e 22 671
e 22 673
e 22 682
e 22 685
e 22 686
e 22 713
e 22 735
e 22 740
e 22 743
e 22 772
e 22 778
e 22 781
e 22 789
e 22 807
e 22 808
e 22 821
e 22 857
e 22 866
e 22 876
e 22 878
e 22 881
e 22 891
e 22 893
e 22 895
e 22 906
e 22 922
e 22 939
e 22 949
e 22 962
e 22 966
e 22 971
e 22 984
e 22 995
e 23 268
e 23 276
e 23 278
e 23 293
e 23 295
e 23 312
e 23 313
e 23 320
e 23 321
e 23 361
e 23 369
e 23 381
e 23 408
e 23 419
e 23 423
e 23 424
e 23 427
e 23 443
e 23 444
e 23 461
e 23 465
e 23 466
e 23 480
e 23 490
e 23 492
e 23 493
e 23 495
e 23 514
e 23 546
e 23 548
e 23 557
e 23 566
e 23 574
e 23 576
e 23 587
e 23 616
e 23 619
e 23 633
e 23 677
e 23 689
e 23 700
e 23 703
e 23 711
e 23 733
e 23 741
e 23 745
e 23 765
e 23 771
e 23 774
e 23 783
e 23 786
e 23 791
e 23 827
e 23 834
e 23 843
e 23 875
e 23 876
e 23 877
e 23 913
e 23 932
e 23 985
e 23 989
e 23 997
e 24 256
e 24 262
e 24 269
e 24 288
e 24 295
e 24 314
e 24 317
e 24 318
e 24 332
e 24 340
e 24 348
e 24 353
e 24 367
e 24 381
e 24 388
e 24 403
e 24 441
e 24 442
e 24 476
e 24 479
e 24 496
e 24 512
e 24 519
e 24 531
e 24 538
e 24 554
e 24 569
e 24 577
e 24 579
e 24 598
e 24 606
e 24 626
e 24 643
e 24 661
e 24 670
e 24 679
e 24 692
e 24 705
e 24 713
e 24 717
e 24 720
e 24 730
e 24 732
e 24 734
e 24 745
e 24 764
e 24 769
e 24 781
e 24 789
e 24 790
e 24 805
e 24 807
e 24 814
e 24 823
e 24 836
e 24 843
e 24 845
e 24 859
e 24 874
e 24 876
e 24 880
e 24 893
e 24 895
e 24 915
e 24 924
e 24 937
e 24 942
e 24 949
e 24 950
e 24 983
e 24 984
e 24 994
e 25 253
e 25 277
e 25 294
e 25 307
e 25 314
e 25 316
e 25 329
e 25 330
e 25 338
e 25 340
e 25 343
e 25 354
e 25 356
e 25 357
e 25 363
e 25 373
e 25 375
e 25 382
e 25 387
e 25 405
e 25 418
e 25 419
e 25 421
e 25 424
e 25 439
e 25 466
e 25 483
e 25 486
e 25 510
e 25 512
e 25 521
e 25 526
e 25 527
e 25 532
e 25 559
e 25 573
e 25 580
e 25 587
e 25 591
e 25 599
e 25 616
e 25 618
e 25 625
e 25 636
e 25 639
e 25 654
e 25 669
e 25 682
e 25 689
e 25 716
e 25 725
e 25 751
e 25 754
e 25 764
e 25 769
e 25 802
e 25 828
e 25 841
e 25 848
e 25 854
e 25 863
e 25 875
e 25 878
e 25 897
e 25 907
e 25 909
e 25 915
e 25 942
e 25 948
e 25 959
e 25 968
e 25 974
e 26 261
e 26 266
e 26 270
e 26 271
e 26 287
e 26 302
e 26 319
e 26 322
e 26 328
e 26 341
e 26 353
e 26 358
e 26 360
e 26 389
e 26 411
e 26 427
e 26 428
e 26 435
e 26 463
e 26 465
e 26 468
e 26 472
e 26 489
e 26 492
e 26 496
e 26 517
e 26 528
e 26 548
e 26 552
e 26 554
e 26 557
e 26 565
e 26 573
e 26 600
e 26 603
e 26 620
e 26 626
e 26 627
e 26 633
e 26 667
e 26 673
e 26 681
e 26 683
e 26 698
e 26 728
e 26 761
e 26 762
e 26 770
e 26 792
e 26 794
e 26 804
e 26 807
e 26 838
e 26 839
e 26 840
e 26 847
e 26 857
e 26 861
e 26 864
e 26 877
e 26 884
e 26 889
e 26 962
e 26 969
e 26 971
e 26 983
e 26 985
e 26 993
e 27 263
e 27 264
e 27 269
e 27 287
e 27 290
e 27 298
e 27 314
e 27 323
e 27 338
e 27 340
e 27 344
e 27 347
e 27 379
e 27 381
e 27 382
e 27 405
e 27 421
e 27 439
e 27 443
e 27 449
e 27 451
e 27 474
e 27 483
e 27 486
e 27 498
e 27 501
e 27 503
e 27 511
e 27 518
e 27 519
e 27 528
e 27 547
e 27 554
e 27 559
e 27 570
e 27 572
e 27 574
e 27 598
e 27 599
e 27 619
e 27 623
e 27 627
e 27 628
e 27 637
e 27 649
e 27 651
e 27 652
e 27 681
e 27 703
e 27 721
e 27 727
e 27 743
e 27 749
e 27 758
e 27 766
e 27 773
e 27 787
e 27 798
e 27 803
e 27 844
e 27 848
e 27 885
e 27 888
e 27 908
e 27 911
e 27 916
e 27 933
e 27 938
e 27 940
e 27 963
e 27 986
e 27 995
e 27 1000
e 28 257
e 28 260
e 28 266
e 28 272
e 28 281
e 28 290
e 28 292
e 28 312
e 28 322
e 28 342
e 28 361
e 28 363
e 28 377
e 28 400
e 28 420
e 28 422
e 28 434
e 28 435
e 28 485
e 28 488
e 28 515
e 28 524
e 28 533
e 28 575
e 28 582
e 28 622
e 28 632
e 28 647
e 28 679
e 28 685
e 28 688
e 28 746
e 28 747
e 28 758
e 28 759
e 28 767
e 28 773
e 28 792
e 28 794
e 28 808
e 28 821
e 28 835
e 28 842
e 28 846
e 28 851
e 28 863
e 28 870
e 28 871
e 28 875
e 28 899
e 28 901
e 28 903
e 28 910
e 28 919
e 28 925
e 28 927
e 28 935
e 28 939
e 28 952
e 28 963
e 28 972
e 28 989
e 28 997
e 29 254
e 29 263
e 29 276
e 29 286
e 29 290
e 29 293
e 29 294
e 29 296
e 29 305
e 29 335
e 29 337
e 29 343
e 29 344
e 29 349
e 29 352
e 29 357
e 29 358
e 29 369
e 29 372
e 29 382
e 29 395
e 29 398
e 29 443
e 29 447
e 29 449
e 29 459
e 29 476
e 29 478
e 29 500
e 29 530
e 29 533
e 29 546
e 29 558
e 29 563
e 29 579
e 29 588
e 29 605
e 29 632
e 29 634
e 29 659
e 29 676
e 29 714
e 29 715
e 29 729
e 29 734
e 29 742
e 29 747
e 29 753
e 29 765
e 29 805
e 29 836
e 29 840
e 29 841
e 29 850
e 29 856
e 29 865
e 29 866
e 29 875
e 29 890
e 29 906
e 29 911
e 29 922
e 29 924
e 29 935
e 29 937
e 29 948
e 29 958
e 29 964
e 29 967
e 29 968
e 29 975
e 29 984
e 29 986
e 29 996
e 30 256
e 30 264
e 30 295
e 30 341
e 30 344
e 30 345
e 30 354
e 30 355
e 30 361
e 30 363
e 30 382
e 30 397
e 30 401
e 30 405
e 30 416
e 30 418
e 30 425
e 30 445
e 30 459
e 30 461
e 30 464
e 30 525
e 30 535
e 30 537
e 30 541
e 30 560
e 30 567
e 30 571
e 30 572
e 30 575
e 30 578
e 30 588
e 30 593
e 30 601
e 30 613
e 30 614
e 30 616
e 30 633
e 30 658
e 30 675
e 30 678
e 30 685
e 30 686
e 30 698
e 30 708
e 30 710
e 30 713
e 30 715
e 30 725
e 30 736
e 30 753
e 30 755
e 30 771
e 30 783
e 30 799
e 30 822
e 30 847
e 30 848
e 30 851
e 30 866
e 30 868
e 30 882
e 30 891
e 30 906
e 30 908
e 30 912
e 30 914
e 30 915
e 30 919
e 30 921
e 30 936
e 30 941
e 30 963
e 30 964
e 30 970
e 30 975
e 30 982
e 30 988
e 30 993
e 30 997
e 31 255
e 31 270
e 31 271
e 31 281
e 31 287
e 31 298
e 31 299
e 31 320
e 31 337
e 31 353
e 31 357
e 31 360
e 31 373
e 31 381
e 31 391
e 31 398
e 31 430
e 31 433
e 31 435
e 31 443
e 31 477
e 31 498
e 31 513
e 31 523
e 31 539
e 31 551
e 31 563
e 31 570
e 31 571
e 31 603
e 31 618
e 31 627
e 31 629
e 31 638
e 31 643
e 31 649
e 31 655
e 31 666
e 31 686
e 31 692
e 31 735
e 31 743
e 31 776
e 31 779
e 31 781
e 31 782
e 31 808
e 31 813
e 31 815
e 31 825
e 31 829
e 31 861
e 31 878
e 31 897
e 31 898
e 31 906
e 31 908
e 31 909
e 31 924
e 31 930
e 31 933
e 31 934
e 31 936
e 31 948
e 31 949
e 31 950
e 31 956
e 31 966
e 31 975
e 32 257
e 32 259
e 32 267
e 32 282
e 32 301
e 32 309
e 32 319
e 32 326
e 32 327
e 32 328
e 32 334
e 32 342
e 32 354
e 32 365
e 32 368
e 32 388
e 32 394
e 32 398
e 32 399
e 32 417
e 32 431
e 32 442
e 32 460
e 32 465
e 32 482
e 32 508
e 32 511
e 32 522
e 32 533
e 32 534
e 32 541
e 32 550
e 32 558
e 32 564
e 32 567
e 32 573
e 32 603
e 32 611
e 32 660
e 32 665
e 32 666
e 32 679
e 32 683
e 32 687
e 32 702
e 32 713
e 32 720
e 32 755
e 32 765
e 32 770
e 32 799
e 32 807
e 32 827
e 32 856
e 32 873
e 32 879
e 32 881
e 32 899
e 32 909
e 32 922
e 32 923
e 32 943
e 32 949
e 32 958
e 32 986
e 32 993
e 32 995
e 33 278
e 33 287
e 33 303
e 33 307
e 33 310
e 33 322
e 33 325
e 33 338
e 33 339
e 33 342
e 33 362
e 33 365
e 33 371
e 33 388
e 33 410
e 33 425
e 33 445
e 33 471
e 33 483
e 33 509
e 33 510
e 33 519
e 33 530
e 33 536
e 33 546
e 33 555
e 33 579
e 33 582
e 33 597
e 33 618
e 33 628
e 33 639
e 33 643
e 33 644
e 33 648
e 33 649
e 33 651
e 33 661
e 33 673
e 33 674
e 33 677
e 33 678
e 33 690
e 33 693
e 33 696
e 33 700
e 33 708
e 33 717
e 33 725
e 33 738
e 33 750
e 33 754
e 33 762
e 33 775
e 33 783
e 33 801
e 33 802
e 33 803
e 33 811
e 33 849
e 33 850
e 33 865
e 33 876
e 33 896
e 33 912
e 33 913
e 33 916
e 33 929
e 33 930
e 33 942
e 33 965
e 33 969
e 33 978
e 33 981
e 33 982
e 33 991
e 33 998
e 34 257
e 34 264
e 34 265
e 34 266
e 34 280
e 34 294
e 34 295
e 34 303
e 34 304
e 34 320
e 34 322
e 34 328
e 34 355
e 34 361
e 34 369
e 34 378
e 34 390
e 34 402
e 34 415
e 34 422
e 34 423
e 34 429
e 34 437
e 34 466
e 34 468
e 34 483
e 34 497
e 34 504
e 34 528
e 34 536
e 34 545
e 34 548
e 34 563
e 34 566
e 34 569
e 34 579
e 34 580
e 34 588
e 34 596
e 34 614
e 34 628
e 34 641
e 34 643
e 34 646
e 34 650
e 34 663
e 34 669
e 34 691
e 34 705
e 34 706
e 34 713
e 34 714
e 34 717
e 34 718
e 34 726
e 34 730
e 34 734
e 34 745
e 34 760
e 34 765
e 34 772
e 34 785
e 34 789
e 34 819
e 34 842
e 34 858
e 34 859
e 34 870
e 34 871
e 34 879
e 34 884
e 34 892
e 34 895
e 34 904
e 34 928
e 34 930
e 34 944
e 34 952
e 34 954
e 34 986
e 34 988
e 35 266
e 35 276
e 35 287
e 35 288
e 35 303
e 35 326
e 35 346
e 35 359
e 35 365
e 35 380
e 35 383
e 35 390
e 35 393
e 35 396
e 35 407
e 35 412
e 35 414
e 35 422
e 35 446
e 35 447
e 35 449
e 35 459
e 35 467
e 35 478
e 35 491
e 35 508
e 35 523
e 35 550
e 35 560
e 35 568
e 35 598
e 35 600
e 35 615
e 35 620
e 35 638
e 35 639
e 35 647
e 35 650
e 35 659
e 35 669
e 35 680
e 35 682
e 35 686
e 35 703
e 35 724
e 35 729
e 35 739
e 35 741
e 35 742
e 35 757
e 35 759
e 35 767
e 35 768
e 35 774
e 35 782
e 35 783
e 35 787
e 35 791
e 35 803
e 35 848
e 35 850
e 35 857
e 35 858
e 35 869
e 35 892
e 35 901
e 35 925
e 35 942
e 35 943
e 35 947
e 35 949
e 35 957
e 35 979
e 35 992
e 35 996
e 36 251
e 36 254
e 36 255
e 36 262
e 36 308
e 36 315
e 36 317
e 36 321
e 36 322
e 36 339
e 36 341
e 36 343
e 36 377
e 36 384
e 36 389
e 36 411
e 36 413
e 36 434
e 36 438
e 36 447
e 36 464
e 36 476
e 36 483
e 36 493
e 36 503
e 36 512
e 36 516
e 36 527
e 36 569
e 36 572
e 36 575
e 36 589
e 36 605
e 36 613
e 36 619
e 36 647
e 36 657
e 36 659
e 36 667
e 36 681
e 36 684
e 36 694
e 36 719
e 36 725
e 36 740
e 36 741
e 36 748
e 36 778
e 36 782
e 36 795
e 36 797
e 36 835
e 36 849
e 36 854
e 36 872
e 36 877
e 36 883
e 36 891
e 36 914
e 36 919
e 36 923
e 36 931
e 36 982
e 36 1000
e 37 259
e 37 321
e 37 328
e 37 353
e 37 356
e 37 362
e 37 364
e 37 374
e 37 375
e 37 379
e 37 386
e 37 399
e 37 401
e 37 402
e 37 418
e 37 445
e 37 452
e 37 491
e 37 501
e 37 513
e 37 514
e 37 515
e 37 529
e 37 537
e 37 538
e 37 549
e 37 578
e 37 580
e 37 599
e 37 604
e 37 612
e 37 618
e 37 621
e 37 622
e 37 627
e 37 642
e 37 689
e 37 696
e 37 713
e 37 716
e 37 723
e 37 736
e 37 778
e 37 796
e 37 840
e 37 859
e 37 861
e 37 867
e 37 887
e 37 891
e 37 895
e 37 921
e 37 933
e 37 959
e 37 970
e 37 973
e 37 976
e 37 981
e 37 986
e 37 990
e 37 998
e 38 260
e 38 277
e 38 279
e 38 286
e 38 300
e 38 306
e 38 313
e 38 323
e 38 325
e 38 331
e 38 336
e 38 337
e 38 338
e 38 350
e 38 354
e 38 361
e 38 363
e 38 369
e 38 373
e 38 389
e 38 393
e 38 399
e 38 403
e 38 409
e 38 415
e 38 424
e 38 472
e 38 484
e 38 485
e 38 514
e 38 522
e 38 532
e 38 540
e 38 547
e 38 553
e 38 559
e 38 567
e 38 576
e 38 613
e 38 634
e 38 656
e 38 663
e 38 679
e 38 700
e 38 701
e 38 716
e 38 719
e 38 727
e 38 732
e 38 739
e 38 743
e 38 748
e 38 784
e 38 797
e 38 802
e 38 804
e 38 823
e 38 826
e 38 838
e 38 845
e 38 846
e 38 852
e 38 854
e 38 859
e 38 866
e 38 876
e 38 879
e 38 892
e 38 894
e 38 897
e 38 898
e 38 899
e 38 914
e 38 922
e 38 939
e 38 948
e 38 972
e 38 987
e 39 258
e 39 282
e 39 284
e 39 309
e 39 317
e 39 321
e 39 336
e 39 340
e 39 357
e 39 360
e 39 364
e 39 375
e 39 388
e 39 398
e 39 408
e 39 458
e 39 459
e 39 463
e 39 472
e 39 477
e 39 478
e 39 487
e 39 491
e 39 497
e 39 505
e 39 516
e 39 522
e 39 533
e 39 540
e 39 542
e 39 544
e 39 555
e 39 557
e 39 578
e 39 582
e 39 595
e 39 632
e 39 652
e 39 658
e 39 662
e 39 665
e 39 678
e 39 687
e 39 688
e 39 690
e 39 712
e 39 736
e 39 745
e 39 767
e 39 773
e 39 827
e 39 830
e 39 838
e 39 856
e 39 862
e 39 864
e 39 877
e 39 880
e 39 883
e 39 885
e 39 895
e 39 896
e 39 915
e 39 920
e 39 923
e 39 926
e 39 927
e 39 950
e 39 960
e 39 976
e 39 979
e 40 252
e 40 265
e 40 281
e 40 316
e 40 322
e 40 325
e 40 335
e 40 348
e 40 360
e 40 363
e 40 431
e 40 437
e 40 453
e 40 455
e 40 464
e 40 470
e 40 488
e 40 490
e 40 500
e 40 513
e 40 526
e 40 537
e 40 543
e 40 555
e 40 558
e 40 608
e 40 613
e 40 617
e 40 628
e 40 634
e 40 638
e 40 654
e 40 662
e 40 673
e 40 709
e 40 718
e 40 723
e 40 737
e 40 749
e 40 769
e 40 773
e 40 778
e 40 803
e 40 814
e 40 816
e 40 817
e 40 821
e 40 842
e 40 855
e 40 859
e 40 867
e 40 883
e 40 885
e 40 886
e 40 892
e 40 908
e 40 919
e 40 931
e 40 932
e 40 935
e 40 949
e 40 958
e 40 965
e 40 966
e 40 968
e 40 972
e 40 986
e 40 1000
e 41 254
e 41 256
e 41 261
e 41 274
e 41 276
e 41 286
e 41 303
e 41 305
e 41 307
e 41 309
e 41 314
e 41 327
e 41 329
e 41 336
e 41 356
e 41 365
e 41 376
e 41 380
e 41 392
e 41 399
e 41 420
e 41 433
e 41 441
e 41 459
e 41 466
e 41 467
e 41 477
e 41 487
e 41 489
e 41 493
e 41 495
e 41 498
e 41 507
e 41 510
e 41 512
e 41 528
e 41 530
e 41 538
e 41 540
e 41 545
e 41 598
e 41 601
e 41 652
e 41 654
e 41 702
e 41 708
e 41 714
e 41 726
e 41 741
e 41 750
e 41 764
e 41 774
e 41 783
e 41 789
e 41 790
e 41 802
e 41 806
e 41 812
e 41 814
e 41 818
e 41 820
e 41 825
e 41 833
e 41 838
e 41 860
e 41 862
e 41 890
e 41 924
e 41 944
e 41 952
e 41 964
e 41 967
e 42 274
e 42 281
e 42 286
e 42 296
e 42 317
e 42 324
e 42 342
e 42 349
e 42 354
e 42 361
e 42 375
e 42 405
e 42 407
e 42 415
e 42 417
e 42 425
e 42 433
e 42 434
e 42 453
e 42 464
e 42 469
e 42 503
e 42 508
e 42 513
e 42 521
e 42 549
e 42 565
e 42 572
e 42 573
e 42 579
e 42 585
e 42 597
e 42 599
e 42 628
e 42 639
e 42 654
e 42 659
e 42 686
e 42 702
e 42 705
e 42 708
e 42 710
e 42 754
e 42 761
e 42 782
e 42 790
e 42 791
e 42 796
e 42 801
e 42 815
e 42 816
e 42 821
e 42 825
e 42 830
e 42 840
e 42 868
e 42 873
e 42 883
e 42 889
e 42 892
e 42 895
e 42 911
e 42 949
e 42 950
e 42 951
e 42 967
e 42 979
e 42 992
e 42 997
e 42 998
e 43 253
e 43 274
e 43 295
e 43 304
e 43 327
e 43 353
e 43 355
e 43 377
e 43 384
e 43 390
e 43 394
e 43 409
e 43 413
e 43 416
e 43 420
e 43 430
e 43 435
e 43 447
e 43 450
e 43 458
e 43 460
e 43 488
e 43 492
e 43 514
e 43 516
e 43 520
e 43 533
e 43 537
e 43 543
e 43 560
e 43 564
e 43 568
e 43 570
e 43 608
e 43 636
e 43 659
e 43 660
e 43 661
e 43 681
e 43 693
e 43 734
e 43 735
e 43 738
e 43 741
e 43 754
e 43 773
e 43 787
e 43 794
e 43 798
e 43 802
e 43 803
e 43 824
e 43 837
e 43 863
e 43 874
e 43 894
e 43 911
e 43 912
e 43 913
e 43 919
e 43 924
e 43 927
e 43 928
e 43 933
e 43 938
e 43 940
e 43 942
e 43 944
e 43 954
e 43 970
e 43 977
e 44 259
e 44 283
e 44 289
e 44 295
e 44 322
e 44 343
e 44 348
e 44 352
e 44 355
e 44 360
e 44 389
e 44 393
e 44 398
e 44 401
e 44 405
e 44 417
e 44 439
e 44 440
e 44 443
e 44 444
e 44 450
e 44 451
e 44 452
e 44 469
e 44 470
e 44 474
e 44 475
e 44 477
e 44 485
e 44 487
e 44 520
e 44 531
e 44 535
e 44 550
e 44 555
e 44 565
e 44 569
e 44 570
e 44 573
e 44 584
e 44 586
e 44 608
e 44 610
e 44 639
e 44 641
e 44 646
e 44 647
e 44 653
e 44 655
e 44 664
e 44 667
e 44 677
e 44 685
e 44 693
e 44 694
e 44 716
e 44 718
e 44 725
e 44 738
e 44 744
e 44 754
e 44 767
e 44 801
e 44 803
e 44 804
e 44 811
e 44 831
e 44 846
e 44 850
e 44 852
e 44 860
e 44 880
e 44 911
e 44 913
e 44 915
e 44 918
e 44 921
e 44 946
e 44 948
e 44 972
e 44 974
e 44 980
e 44 982
e 44 984
e 44 1000
e 45 252
e 45 261
e 45 263
e 45 266
e 45 271
e 45 282
e 45 303
e 45 306
e 45 327
e 45 335
e 45 366
e 45 371
e 45 400
e 45 402
e 45 411
e 45 433
e 45 441
e 45 457
e 45 465
e 45 471
e 45 474
e 45 490
e 45 507
e 45 514
e 45 535
e 45 540
e 45 549
e 45 565
e 45 583
e 45 585
e 45 603
e 45 608
e 45 611
e 45 613
e 45 615
e 45 616
e 45 621
e 45 626
e 45 632
e 45 639
e 45 655
e 45 657
e 45 666
e 45 675
e 45 694
e 45 695
e 45 703
e 45 710
e 45 714
e 45 717
e 45 718
e 45 723
e 45 733
e 45 749
e 45 764
e 45 775
e 45 795
e 45 796
e 45 797
e 45 798
e 45 830
e 45 841
e 45 843
e 45 846
e 45 850
e 45 851
e 45 864
e 45 874
e 45 881
e 45 888
e 45 910
e 45 911
e 45 914
e 45 941
e 45 946
e 45 977
e 45 980
e 45 985
e 45 987
e 45 999
e 46 252
e 46 259
e 46 274
e 46 277
e 46 294
e 46 320
e 46 325
e 46 326
e 46 333
e 46 338
e 46 344
e 46 363
e 46 374
e 46 375
e 46 392
e 46 395
e 46 397
e 46 415
e 46 419
e 46 433
e 46 438
e 46 452
e 46 464
e 46 474
e 46 484
e 46 516
e 46 517
e 46 518
e 46 525
e 46 542
e 46 564
e 46 576
e 46 584
e 46 608
e 46 617
e 46 625
e 46 628
e 46 634
e 46 637
e 46 672
e 46 674
e 46 677
e 46 698
e 46 701
e 46 714
e 46 724
e 46 729
e 46 731
e 46 734
e 46 742
e 46 759
e 46 768
e 46 786
e 46 791
e 46 835
e 46 843
e 46 847
e 46 848
e 46 850
e 46 857
e 46 865
e 46 899
e 46 914
e 46 918
e 46 960
e 46 968
e 46 979
e 46 986
e 46 991
e 46 999
e 47 264
e 47 283
e 47 309
e 47 345
e 47 351
e 47 361
e 47 372
e 47 382
e 47 406
e 47 412
e 47 413
e 47 419
e 47 431
e 47 446
e 47 486
e 47 494
e 47 497
e 47 499
e 47 558
e 47 560
e 47 584
e 47 593
e 47 597
e 47 600
e 47 606
e 47 613
e 47 619
e 47 635
e 47 642
e 47 646
e 47 664
e 47 678
e 47 691
e 47 700
e 47 707
e 47 717
e 47 720
e 47 723
e 47 724
e 47 746
e 47 755
e 47 774
e 47 780
e 47 809
e 47 818
e 47 823
e 47 831
e 47 837
e 47 838
e 47 843
e 47 845
e 47 850
e 47 853
e 47 861
e 47 884
e 47 898
e 47 908
e 47 939
e 47 940
e 47 942
e 47 945
e 47 949
e 47 951
e 47 960
e 47 962
e 47 999
e 48 252
e 48 290
e 48 298
e 48 302
e 48 319
e 48 321
e 48 332
e 48 351
e 48 363
e 48 374
e 48 377
e 48 392
e 48 410
e 48 422
e 48 456
e 48 460
e 48 462
e 48 463
e 48 483
e 48 484
e 48 489
e 48 497
e 48 525
e 48 527
e 48 542
e 48 544
e 48 585
e 48 611
e 48 618
e 48 619
e 48 641
e 48 650
e 48 665
e 48 673
e 48 675
e 48 682
e 48 686
e 48 699
e 48 719
e 48 722
e 48 725
e 48 744
e 48 764
e 48 766
e 48 770
e 48 782
e 48 784
e 48 791
e 48 816
e 48 827
e 48 840
e 48 848
e 48 851
e 48 858
e 48 860
e 48 864
e 48 869
e 48 870
e 48 877
e 48 890
e 48 892
e 48 893
e 48 909
e 48 917
e 48 925
e 48 938
e 48 940
e 48 952
e 48 958
e 48 959
e 48 973
e 48 974
e 48 975
e 48 993
e 49 254
e 49 257
e 49 293
e 49 297
e 49 298
e 49 304
e 49 309
e 49 314
e 49 319
e 49 323
e 49 324
e 49 333
e 49 338
e 49 340
e 49 348
e 49 349
e 49 354
e 49 374
e 49 377
e 49 384
e 49 422
e 49 425
e 49 438
e 49 463
e 49 466
e 49 477
e 49 479
e 49 482
e 49 489
e 49 493
e 49 503
e 49 518
e 49 539
e 49 540
e 49 543
e 49 549
e 49 555
e 49 560
e 49 568
e 49 595
e 49 602
e 49 631
e 49 644
e 49 662
e 49 684
e 49 688
e 49 704
e 49 706
e 49 728
e 49 737
e 49 750
e 49 754
e 49 767
e 49 779
e 49 787
e 49 795
e 49 814
e 49 848
e 49 879
e 49 885
e 49 893
e 49 894
e 49 909
e 49 931
e 49 937
e 49 947
e 49 950
e 49 962
e 49 968
e 49 971
e 49 978
e 49 990
e 50 259
e 50 269
e 50 273
e 50 277
e 50 281
e 50 287
e 50 288
e 50 289
e 50 305
e 50 338
e 50 344
e 50 361
e 50 372
e 50 378
e 50 385
e 50 405
e 50 412
e 50 419
e 50 432
e 50 445
e 50 448
e 50 455
e 50 491
e 50 508
e 50 511
e 50 513
e 50 516
e 50 523
e 50 580
e 50 595
e 50 600
e 50 610
e 50 612
e 50 613
e 50 626
e 50 650
e 50 660
e 50 661
e 50 665
e 50 667
e 50 675
e 50 683
e 50 694
e 50 705
e 50 728
e 50 732
e 50 751
e 50 755
e 50 774
e 50 777
e 50 797
e 50 798
e 50 811
e 50 816
e 50 825
e 50 828
e 50 829
e 50 834
e 50 835
e 50 838
e 50 846
e 50 847
e 50 855
e 50 869
e 50 875
e 50 877
e 50 882
e 50 884
e 50 911
e 50 915
e 50 917
e 50 921
e 50 939
e 50 947
e 50 959
e 50 978
e 50 984
e 50 985
e 50 990
e 50 991
e 51 254
e 51 273
e 51 277
e 51 279
e 51 286
e 51 289
e 51 294
e 51 298
e 51 314
e 51 319
e 51 344
e 51 345
e 51 355
e 51 364
e 51 400
e 51 401
e 51 440
e 51 441
e 51 448
e 51 468
e 51 475
e 51 483
e 51 502
e 51 517
e 51 532
e 51 544
e 51 561
e 51 571
e 51 572
e 51 579
e 51 588
e 51 590
e 51 591
e 51 599
e 51 609
e 51 616
e 51 630
e 51 650
e 51 665
e 51 670
e 51 672
e 51 675
e 51 681
e 51 687
e 51 704
e 51 718
e 51 724
e 51 730
e 51 753
e 51 755
e 51 758
e 51 759
e 51 767
e 51 771
e 51 777
e 51 780
e 51 787
e 51 790
e 51 802
e 51 811
e 51 818
e 51 835
e 51 885
e 51 894
e 51 898
e 51 917
e 51 925
e 51 936
e 51 938
e 51 966
e 51 974
e 51 979
e 51 983
e 51 997
e 52 264
e 52 269
e 52 285
e 52 290
e 52 297
e 52 305
e 52 313
e 52 322
e 52 324
e 52 336
e 52 353
e 52 357
e 52 361
e 52 373
e 52 378
e 52 399
e 52 404
e 52 407
e 52 409
e 52 429
e 52 441
e 52 450
e 52 461
e 52 500
e 52 501
e 52 551
e 52 571
e 52 588
e 52 589
e 52 595
e 52 615
e 52 628
e 52 629
e 52 636
e 52 638
e 52 662
e 52 671
e 52 679
e 52 686
e 52 699
e 52 710
e 52 726
e 52 741
e 52 746
e 52 773
e 52 782
e 52 789
e 52 802
e 52 803
e 52 808
e 52 819
e 52 841
e 52 850
e 52 858
e 52 864
e 52 880
e 52 886
e 52 887
e 52 888
e 52 893
e 52 898
e 52 921
e 52 928
e 52 930
e 52 932
e 52 955
e 52 966
e 52 979
e 52 998
e 52 999
e 52 1000
e 53 257
e 53 258
e 53 276
e 53 282
e 53 290
e 53 314
e 53 318
e 53 322
e 53 325
e 53 335
e 53 348
e 53 351
e 53 367
e 53 368
e 53 388
e 53 398
e 53 405
e 53 410
e 53 411
e 53 443
e 53 444
e 53 455
e 53 467
e 53 482
e 53 487
e 53 512
e 53 513
e 53 514
e 53 518
e 53 537
e 53 543
e 53 544
e 53 560
e 53 562
e 53 564
e 53 566
e 53 570
e 53 585
e 53 592
e 53 603
e 53 642
e 53 656
e 53 680
e 53 689
e 53 691
e 53 693
e 53 704
e 53 711
e 53 718
e 53 719
e 53 724
e 53 742
e 53 747
e 53 749
e 53 768
e 53 794
e 53 806
e 53 824
e 53 842
e 53 847
e 53 850
e 53 851
e 53 890
e 53 910
e 53 911
e 53 917
e 53 919
e 53 941
e 53 945
e 53 961
e 53 968
e 53 971
e 53 972
e 53 982
e 53 986
e 53 987
e 53 997
e 53 1000
e 54 268
e 54 282
e 54 287
e 54 292
e 54 295
e 54 301
e 54 330
e 54 344
e 54 364
e 54 369
e 54 375
e 54 394
e 54 405
e 54 412
e 54 413
e 54 416
e 54 422
e 54 434
e 54 435
e 54 447
e 54 449
e 54 453
e 54 454
e 54 464
e 54 502
e 54 517
e 54 523
e 54 530
e 54 531
e 54 550
e 54 551
e 54 563
e 54 572
e 54 575
e 54 579
e 54 581
e 54 594
e 54 604
e 54 627
e 54 635
e 54 642
e 54 650
e 54 663
e 54 687
e 54 689
e 54 711
e 54 712
e 54 719
e 54 720
e 54 725
e 54 732
e 54 764
e 54 765
e 54 769
e 54 783
e 54 818
e 54 823
e 54 829
e 54 843
e 54 844
e 54 860
e 54 877
e 54 887
e 54 890
e 54 891
e 54 892
e 54 894
e 54 904
e 54 910
e 54 917
e 54 944
e 54 955
e 54 963
e 54 984
e 54 996
e 55 253
e 55 256
e 55 259
e 55 279
e 55 281
e 55 282
e 55 283
e 55 296
e 55 305
e 55 317
e 55 328
e 55 330
e 55 338
e 55 342
e 55 353
e 55 357
e 55 374
e 55 382
e 55 395
e 55 396
e 55 408
e 55 409
e 55 433
e 55 443
e 55 461
e 55 467
e 55 483
e 55 495
e 55 511
e 55 523
e 55 541
e 55 546
e 55 556
e 55 575
e 55 590
e 55 591
e 55 601
e 55 611
e 55 621
e 55 622
e 55 634
e 55 642
e 55 664
e 55 671
e 55 690
e 55 712
e 55 716
e 55 721
e 55 722
e 55 740
e 55 741
e 55 743
e 55 774
e 55 775
e 55 792
e 55 794
e 55 815
e 55 823
e 55 836
e 55 838
e 55 841
e 55 857
e 55 866
e 55 880
e 55 917
e 55 923
e 55 926
e 55 932
e 55 946
e 55 948
e 55 950
e 55 957
e 55 976
e 55 979
e 55 980
e 55 993
e 55 1000
e 56 264
e 56 276
e 56 281
e 56 288
e 56 291
e 56 296
e 56 326
e 56 331
e 56 353
e 56 358
e 56 362
e 56 368
e 56 380
e 56 386
e 56 391
e 56 392
e 56 397
e 56 414
e 56 431
e 56 450
e 56 452
e 56 456
e 56 469
e 56 495
e 56 509
e 56 510
e 56 519
e 56 533
e 56 544
e 56 560
e 56 564
e 56 570
e 56 580
e 56 588
e 56 598
e 56 602
e 56 617
e 56 620
e 56 621
e 56 636
e 56 651
e 56 656
e 56 669
e 56 687
e 56 703
e 56 707
e 56 800
e 56 807
e 56 820
e 56 826
e 56 846
e 56 847
e 56 865
e 56 867
e 56 883
e 56 889
e 56 904
e 56 905
e 56 906
e 56 915
e 56 961
e 56 971
e 56 974
e 56 975
e 56 989
e 56 994
e 56 995
e 56 999
e 57 255
e 57 258
e 57 265
e 57 302
e 57 315
e 57 362
e 57 366
e 57 381
e 57 386
e 57 392
e 57 397
e 57 437
e 57 440
e 57 442
e 57 457
e 57 458
e 57 482
e 57 516
e 57 519
e 57 524
e 57 543
e 57 553
e 57 564
e 57 594
e 57 607
e 57 608
e 57 626
e 57 631
e 57 636
e 57 672
e 57 728
e 57 734
e 57 771
e 57 772
e 57 775
e 57 788
e 57 802
e 57 805
e 57 810
e 57 818
e 57 826
e 57 830
e 57 838
e 57 885
e 57 887
e 57 905
e 57 915
e 57 923
e 57 940
e 57 963
e 57 964
e 57 966
e 57 970
e 57 975
e 57 986
e 58 271
e 58 284
e 58 320
e 58 325
e 58 358
e 58 368
e 58 389
e 58 392
e 58 420
e 58 457
e 58 472
e 58 486
e 58 491
e 58 503
e 58 504
e 58 515
e 58 517
e 58 521
e 58 523
e 58 542
e 58 544
e 58 572
e 58 576
e 58 592
e 58 606
e 58 609
e 58 613
e 58 619
e 58 629
e 58 637
e 58 646
e 58 652
e 58 705
e 58 714
e 58 722
e 58 745
e 58 749
e 58 753
e 58 754
e 58 756
e 58 760
e 58 773
e 58 794
e 58 795
e 58 802
e 58 819
e 58 820
e 58 873
e 58 891
e 58 897
e 58 924
e 58 936
e 58 937
e 58 941
e 58 943
e 58 945
e 58 972
e 58 979
e 58 984
e 59 251
e 59 254
e 59 293
e 59 294
e 59 304
e 59 312
e 59 344
e 59 358
e 59 369
e 59 377
e 59 384
e 59 391
e 59 415
e 59 418
e 59 422
e 59 438
e 59 442
e 59 483
e 59 494
e 59 510
e 59 514
e 59 526
e 59 537
e 59 547
e 59 584
e 59 585
e 59 588
e 59 618
e 59 626
e 59 628
e 59 634
e 59 642
e 59 654
e 59 662
e 59 667
e 59 673
e 59 675
e 59 691
e 59 696
e 59 697
e 59 701
e 59 711
e 59 714
e 59 735
e 59 747
e 59 757
e 59 765
e 59 776
e 59 783
e 59 811
e 59 813
e 59 821
e 59 823
e 59 836
e 59 850
e 59 880
e 59 885
e 59 903
e 59 904
e 59 913
e 59 921
e 59 923
e 59 937
e 59 943
e 59 956
e 59 962
e 59 980
e 59 994
e 60 256
e 60 270
e 60 277
e 60 287
e 60 291
e 60 307
e 60 342
e 60 343
e 60 344
e 60 347
e 60 365
e 60 367
e 60 376
e 60 385
e 60 394
e 60 398
e 60 409
e 60 424
e 60 436
e 60 438
e 60 443
e 60 463
e 60 496
e 60 505
e 60 509
e 60 519
e 60 533
e 60 552
e 60 555
e 60 580
e 60 590
e 60 597
e 60 598
e 60 608
e 60 643
e 60 648
e 60 663
e 60 667
e 60 689
e 60 695
e 60 709
e 60 729
e 60 771
e 60 820
e 60 837
e 60 850
e 60 860
e 60 867
e 60 881
e 60 884
e 60 891
e 60 909
e 60 914
e 60 920
e 60 925
e 60 931
e 60 932
e 60 959
e 60 962
e 60 986
e 60 990
e 61 257
e 61 274
e 61 278
e 61 283
e 61 288
e 61 307
e 61 308
e 61 312
e 61 323
e 61 359
e 61 361
e 61 366
e 61 370
e 61 380
e 61 410
e 61 412
e 61 428
e 61 431
e 61 432
e 61 436
e 61 451
e 61 452
e 61 454
e 61 462
e 61 471
e 61 506
e 61 517
e 61 521
e 61 532
e 61 550
e 61 567
e 61 569
e 61 572
e 61 616
e 61 619
e 61 633
e 61 640
e 61 684
e 61 686
e 61 698
e 61 710
e 61 712
e 61 720
e 61 724
e 61 736
e 61 771
e 61 779
e 61 781
e 61 785
e 61 789
e 61 792
e 61 793
e 61 827
e 61 833
e 61 836
e 61 840
e 61 843
e 61 845
e 61 848
e 61 865
e 61 879
e 61 901
e 61 903
e 61 920
e 61 925
e 61 927
e 61 929
e 61 931
e 61 943
e 61 956
e 61 979
e 61 980
e 61 985
e 62 261
e 62 263
e 62 274
e 62 275
e 62 279
e 62 290
e 62 299
e 62 317
e 62 358
e 62 360
e 62 361
e 62 368
e 62 371
e 62 373
e 62 398
e 62 420
e 62 427
e 62 430
e 62 441
e 62 444
e 62 451
e 62 452
e 62 465
e 62 493
e 62 501
e 62 503
e 62 509
e 62 513
e 62 518
e 62 519
e 62 542
e 62 578
e 62 585
e 62 586
e 62 588
e 62 589
e 62 591
e 62 600
e 62 615
e 62 642
e 62 652
e 62 662
e 62 670
e 62 671
e 62 681
e 62 691
e 62 698
e 62 699
e 62 705
e 62 719
e 62 730
e 62 736
e 62 739
e 62 756
e 62 767
e 62 774
e 62 776
e 62 786
e 62 787
e 62 797
e 62 803
e 62 806
e 62 809
e 62 813
e 62 814
e 62 816
e 62 838
e 62 858
e 62 860
e 62 862
e 62 868
e 62 879
e 62 899
e 62 918
e 62 933
e 62 945
e 62 957
e 62 970
e 62 975
e 62 983
e 62 987
e 62 991
e 62 997
e 62 998
e 63 265
e 63 266
e 63 270
e 63 272
e 63 278
e 63 279
e 63 288
e 63 295
e 63 321
e 63 325
e 63 339
e 63 342
e 63 344
e 63 359
e 63 360
e 63 370
e 63 378
e 63 385
e 63 389
e 63 390
e 63 402
e 63 462
e 63 478
e 63 480
e 63 503
e 63 505
e 63 542
e 63 543
e 63 552
e 63 558
e 63 570
e 63 597
e 63 602
e 63 612
e 63 623
e 63 626
e 63 631
e 63 639
e 63 641
e 63 645
e 63 647
e 63 672
e 63 680
e 63 687
e 63 692
e 63 737
e 63 750
e 63 753
e 63 764
e 63 770
e 63 773
e 63 774
e 63 777
e 63 782
e 63 801
e 63 807
e 63 811
e 63 820
e 63 831
e 63 834
e 63 848
e 63 849
e 63 855
e 63 886
e 63 890
e 63 897
e 63 914
e 63 930
e 63 962
e 63 973
e 63 993
e 64 265
e 64 277
e 64 280
e 64 289
e 64 292
e 64 303
e 64 325
e 64 355
e 64 357
e 64 376
e 64 387
e 64 393
e 64 394
e 64 422
e 64 437
e 64 441
e 64 468
e 64 472
e 64 494
e 64 509
e 64 533
e 64 548
e 64 554
e 64 558
e 64 578
e 64 590
e 64 606
e 64 608
e 64 620
e 64 622
e 64 648
e 64 650
e 64 656
e 64 666
e 64 694
e 64 700
e 64 701
e 64 704
e 64 710
e 64 714
e 64 718
e 64 719
e 64 729
e 64 735
e 64 751
e 64 770
e 64 783
e 64 809
e 64 811
e 64 813
e 64 820
e 64 843
e 64 844
e 64 846
e 64 855
e 64 873
e 64 880
e 64 889
e 64 898
e 64 900
e 64 907
e 64 916
e 64 925
e 64 927
e 64 934
e 64 944
e 64 953
e 64 961
e 64 964
e 64 979
e 64 989
e 64 998
e 65 270
e 65 273
e 65 284
e 65 327
e 65 332
e 65 338
e 65 341
e 65 349
e 65 363
e 65 366
e 65 379
e 65 389
e 65 394
e 65 402
e 65 416
e 65 429
e 65 437
e 65 439
e 65 441
e 65 465
e 65 475
e 65 483
e 65 490
e 65 506
e 65 508
e 65 527
e 65 536
e 65 538
e 65 539
e 65 571
e 65 579
e 65 602
e 65 607
e 65 623
e 65 624
e 65 625
e 65 629
e 65 633
e 65 634
e 65 640
e 65 647
e 65 650
e 65 655
e 65 660
e 65 666
e 65 681
e 65 694
e 65 706
e 65 711
e 65 718
e 65 734
e 65 739
e 65 755
e 65 780
e 65 795
e 65 798
e 65 812
e 65 814
e 65 826
e 65 838
e 65 841
e 65 848
e 65 856
e 65 858
e 65 872
e 65 888
e 65 901
e 65 902
e 65 906
e 65 909
e 65 917
e 65 919
e 65 948
e 65 950
e 65 964
e 65 966
e 65 968
e 65 972
e 65 981
e 65 985
e 65 991
e 65 993
e 66 254
e 66 260
e 66 262
e 66 267
e 66 280
e 66 282
e 66 291
e 66 307
e 66 315
e 66 321
e 66 326
e 66 334
e 66 378
e 66 380
e 66 383
e 66 402
e 66 407
e 66 413
e 66 428
e 66 434
e 66 444
e 66 447
e 66 452
e 66 455
e 66 456
e 66 463
e 66 467
e 66 471
e 66 476
e 66 479
e 66 493
e 66 513
e 66 532
e 66 535
e 66 560
e 66 561
e 66 565
e 66 593
e 66 610
e 66 626
e 66 636
e 66 640
e 66 652
e 66 657
e 66 662
e 66 663
e 66 681
e 66 682
e 66 689
e 66 692
e 66 710
e 66 723
e 66 728
e 66 744
e 66 753
e 66 771
e 66 776
e 66 783
e 66 792
e 66 802
e 66 806
e 66 808
e 66 810
e 66 815
e 66 818
e 66 819
e 66 841
e 66 848
e 66 867
e 66 869
e 66 875
e 66 877
e 66 885
e 66 906
e 66 907
e 66 911
e 66 922
e 66 944
e 66 963
e 66 970
e 66 971
e 66 972
e 66 973
e 66 982
e 66 997
e 67 263
e 67 265
e 67 299
e 67 312
e 67 328
e 67 343
e 67 363
e 67 392
e 67 398
e 67 401
e 67 405
e 67 410
e 67 412
e 67 417
e 67 419
e 67 424
e 67 437
e 67 442
e 67 443
e 67 445
e 67 447
e 67 459
e 67 462
e 67 471
e 67 483
e 67 499
e 67 507
e 67 512
e 67 515
e 67 520
e 67 526
e 67 534
e 67 536
e 67 562
e 67 566
e 67 587
e 67 599
e 67 632
e 67 646
e 67 655
e 67 669
e 67 672
e 67 682
e 67 685
e 67 691
e 67 701
e 67 702
e 67 711
e 67 731
e 67 741
e 67 757
e 67 758
e 67 759
e 67 761
e 67 773
e 67 799
e 67 807
e 67 812
e 67 813
e 67 823
e 67 844
e 67 845
e 67 852
e 67 860
e 67 871
e 67 889
e 67 899
e 67 901
e 67 903
e 67 908
e 67 923
e 67 925
e 67 952
e 67 961
e 67 966
e 67 968
e 67 988
e 67 990
e 68 265
e 68 270
e 68 276
e 68 281
e 68 291
e 68 306
e 68 307
e 68 316
e 68 318
e 68 323
e 68 324
e 68 330
e 68 331
e 68 333
e 68 337
e 68 339
e 68 343
e 68 348
e 68 350
e 68 370
e 68 389
e 68 401
e 68 412
e 68 431
e 68 433
e 68 439
e 68 441
e 68 481
e 68 509
e 68 523
e 68 525
e 68 531
e 68 533
e 68 546
e 68 550
e 68 552
e 68 556
e 68 565
e 68 566
e 68 577
e 68 590
e 68 604
e 68 606
e 68 611
e 68 614
e 68 617
e 68 634
e 68 641
e 68 672
e 68 703
e 68 745
e 68 758
e 68 761
e 68 764
e 68 802
e 68 813
e 68 819
e 68 821
e 68 831
e 68 841
e 68 863
e 68 871
e 68 877
e 68 892
e 68 895
e 68 909
e 68 913
e 68 914
e 68 918
e 68 932
e 68 945
e 68 949
e 68 961
e 68 984
e 68 990
e 68 994
e 69 262
e 69 275
e 69 294
e 69 301
e 69 317
e 69 322
e 69 325
e 69 332
e 69 350
e 69 369
e 69 379
e 69 391
e 69 398
e 69 404
e 69 411
e 69 417
e 69 426
e 69 428
e 69 433
e 69 434
e 69 458
e 69 459
e 69 465
e 69 478
e 69 483
e 69 485
e 69 500
e 69 501
e 69 513
e 69 522
e 69 528
e 69 541
e 69 560
e 69 561
e 69 574
e 69 601
e 69 602
e 69 617
e 69 623
e 69 628
e 69 633
e 69 651
e 69 689
e 69 696
e 69 713
e 69 718
e 69 730
e 69 734
e 69 763
e 69 765
e 69 770
e 69 782
e 69 786
e 69 788
e 69 804
e 69 806
e 69 818
e 69 819
e 69 869
e 69 881
e 69 885
e 69 887
e 69 907
e 69 911
e 69 919
e 69 926
e 69 943
e 69 944
e 69 950
e 69 963
e 69 981
e 70 258
e 70 261
e 70 275
e 70 280
e 70 298
e 70 309
e 70 318
e 70 326
e 70 327
e 70 328
e 70 330
e 70 345
e 70 347
e 70 354
e 70 357
e 70 364
e 70 390
e 70 392
e 70 396
e 70 398
e 70 407
e 70 426
e 70 441
e 70 451
e 70 461
e 70 478
e 70 479
e 70 487
e 70 493
e 70 500
e 70 507
e 70 512
e 70 523
e 70 544
e 70 552
e 70 553
e 70 567
e 70 569
e 70 575
e 70 592
e 70 596
e 70 597
e 70 604
e 70 612
e 70 614
e 70 629
e 70 640
e 70 641
e 70 645
e 70 656
e 70 669
e 70 680
e 70 682
e 70 683
e 70 720
e 70 724
e 70 730
e 70 737
e 70 758
e 70 777
e 70 785
e 70 797
e 70 805
e 70 806
e 70 814
e 70 837
e 70 843
e 70 853
e 70 854
e 70 855
e 70 864
e 70 865
e 70 871
e 70 884
e 70 885
e 70 892
e 70 898
e 70 899
e 70 919
e 70 924
e 70 936
e 70 942
e 70 954
e 70 956
e 70 957
e 70 961
e 70 965
e 70 966
e 70 970
e 70 971
e 70 982
e 70 984
e 70 992
e 70 994
e 71 254
e 71 257
e 71 266
e 71 272
e 71 273
e 71 283
e 71 323
e 71 326
e 71 335
e 71 338
e 71 372
e 71 375
e 71 378
e 71 389
e 71 398
e 71 401
e 71 440
e 71 451
e 71 480
e 71 481
e 71 494
e 71 508
e 71 512
e 71 514
e 71 524
e 71 537
e 71 544
e 71 560
e 71 568
e 71 580
e 71 594
e 71 595
e 71 631
e 71 632
e 71 634
e 71 637
e 71 652
e 71 655
e 71 660
e 71 664
e 71 694
e 71 699
e 71 712
e 71 743
e 71 744
e 71 748
e 71 786
e 71 787
e 71 794
e 71 802
e 71 804
e 71 816
e 71 855
e 71 874
e 71 878
e 71 880
e 71 911
e 71 931
e 71 941
e 71 956
e 71 959
e 71 960
e 71 962
e 71 971
e 71 975
e 72 263
e 72 273
e 72 275
e 72 281
e 72 285
e 72 297
e 72 318
e 72 319
e 72 336
e 72 358
e 72 369
e 72 387
e 72 403
e 72 413
e 72 416
e 72 453
e 72 476
e 72 490
e 72 499
e 72 506
e 72 508
e 72 528
e 72 535
e 72 538
e 72 543
e 72 551
e 72 557
e 72 584
e 72 592
e 72 594
e 72 618
e 72 621
e 72 634
e 72 647
e 72 654
e 72 665
e 72 680
e 72 681
e 72 688
e 72 696
e 72 709
e 72 736
e 72 752
e 72 757
e 72 774
e 72 788
e 72 833
e 72 839
e 72 859
e 72 861
e 72 875
e 72 893
e 72 905
e 72 907
e 72 910
e 72 923
e 72 924
e 72 927
e 72 942
e 72 951
e 72 960
e 72 965
e 72 992
e 72 995
e 72 996
e 72 999
e 73 256
e 73 286
e 73 297
e 73 317
e 73 325
e 73 336
e 73 370
e 73 371
e 73 372
e 73 418
e 73 433
e 73 434
e 73 440
e 73 453
e 73 457
e 73 458
e 73 468
e 73 470
e 73 506
e 73 516
e 73 517
e 73 522
e 73 531
e 73 533
e 73 542
e 73 549
e 73 564
e 73 586
e 73 589
e 73 601
e 73 605
e 73 607
e 73 609
e 73 618
e 73 619
e 73 620
e 73 622
e 73 628
e 73 642
e 73 648
e 73 666
e 73 668
e 73 674
e 73 676
e 73 681
e 73 694
e 73 697
e 73 729
e 73 736
e 73 737
e 73 738
e 73 741
e 73 771
e 73 795
e 73 797
e 73 821
e 73 824
e 73 829
e 73 858
e 73 886
e 73 894
e 73 921
e 73 927
e 73 956
e 73 959
e 73 964
e 73 990
e 73 991
e 74 261
e 74 300
e 74 301
e 74 303
e 74 318
e 74 328
e 74 341
e 74 356
e 74 368
e 74 373
e 74 374
e 74 397
e 74 419
e 74 420
e 74 440
e 74 442
e 74 446
e 74 448
e 74 449
e 74 468
e 74 473
e 74 477
e 74 488
e 74 497
e 74 508
e 74 510
e 74 515
e 74 524
e 74 528
e 74 550
e 74 563
e 74 572
e 74 576
e 74 579
e 74 585
e 74 604
e 74 605
e 74 607
e 74 646
e 74 647
e 74 648
e 74 658
e 74 698
e 74 713
e 74 722
e 74 748
e 74 750
e 74 751
e 74 762
e 74 775
e 74 782
e 74 783
e 74 799
e 74 834
e 74 849
e 74 861
e 74 865
e 74 880
e 74 881
e 74 888
e 74 914
e 74 943
e 74 951
e 74 954
e 74 975
e 74 979
e 74 987
e 74 995
e 75 255
e 75 265
e 75 272
e 75 278
e 75 290
e 75 291
e 75 324
e 75 327
e 75 340
e 75 360
e 75 365
e 75 366
e 75 379
e 75 384
e 75 395
e 75 399
e 75 407
e 75 414
e 75 435
e 75 447
e 75 467
e 75 472
e 75 477
e 75 514
e 75 530
e 75 538
e 75 546
e 75 587
e 75 596
e 75 602
e 75 607
e 75 608
e 75 628
e 75 634
e 75 645
e 75 653
e 75 662
e 75 670
e 75 674
e 75 682
e 75 685
e 75 691
e 75 701
e 75 721
e 75 723
e 75 735
e 75 739
e 75 764
e 75 767
e 75 793
e 75 801
e 75 803
e 75 805
e 75 820
e 75 833
e 75 874
e 75 882
e 75 892
e 75 896
e 75 897
e 75 910
e 75 911
e 75 912
e 75 918
e 75 924
e 75 973
e 75 981
e 75 984
e 76 278
e 76 299
e 76 302
e 76 310
e 76 311
e 76 313
e 76 316
e 76 319
e 76 322
e 76 328
e 76 336
e 76 352
e 76 356
e 76 372
e 76 383
e 76 390
e 76 410
e 76 414
e 76 439
e 76 444
e 76 450
e 76 468
e 76 469
e 76 476
e 76 496
e 76 506
e 76 531
e 76 540
e 76 548
e 76 551
e 76 566
e 76 575
e 76 583
e 76 588
e 76 593
e 76 610
e 76 616
e 76 620
e 76 627
e 76 628
e 76 630
e 76 634
e 76 646
e 76 667
e 76 672
e 76 678
e 76 691
e 76 694
e 76 721
e 76 723
e 76 734
e 76 742
e 76 750
e 76 754
e 76 761
e 76 780
e 76 806
e 76 822
e 76 831
e 76 842
e 76 846
e 76 847
e 76 858
e 76 860
e 76 897
e 76 908
e 76 912
e 76 913
e 76 922
e 76 933
e 76 936
e 76 939
e 76 950
e 76 952
e 76 971
e 76 973
e 76 977
e 76 982
e 77 261
e 77 270
e 77 292
e 77 296
e 77 318
e 77 319
e 77 334
e 77 341
e 77 366
e 77 394
e 77 396
e 77 418
e 77 420
e 77 432
e 77 440
e 77 444
e 77 457
e 77 471
e 77 480
e 77 481
e 77 486
e 77 489
e 77 495
e 77 496
e 77 501
e 77 531
e 77 548
e 77 551
e 77 554
e 77 565
e 77 607
e 77 615
e 77 619
e 77 621
e 77 625
e 77 626
e 77 631
e 77 641
e 77 646
e 77 648
e 77 649
e 77 660
e 77 664
e 77 666
e 77 709
e 77 713
e 77 716
e 77 731
e 77 740
e 77 742
e 77 750
e 77 773
e 77 776
e 77 777
e 77 785
e 77 791
e 77 805
e 77 806
e 77 812
e 77 831
e 77 838
e 77 849
e 77 855
e 77 878
e 77 880
e 77 883
e 77 891
e 77 892
e 77 907
e 77 920
e 77 937
e 77 941
e 77 949
e 77 960
e 77 965
e 77 971
e 77 976
e 77 983
e 77 987
e 78 264
e 78 265
e 78 299
e 78 315
e 78 323
e 78 344
e 78 348
e 78 387
e 78 390
e 78 395
e 78 398
e 78 403
e 78 406
e 78 414
e 78 419
e 78 422
e 78 424
e 78 425
e 78 441
e 78 446
e 78 454
e 78 455
e 78 465
e 78 467
e 78 470
e 78 500
e 78 509
e 78 513
e 78 515
e 78 522
e 78 544
e 78 554
e 78 562
e 78 572
e 78 573
e 78 607
e 78 618
e 78 622
e 78 623
e 78 627
e 78 653
e 78 660
e 78 663
e 78 665
e 78 674
e 78 675
e 78 686
e 78 687
e 78 694
e 78 706
e 78 713
e 78 718
e 78 731
e 78 757
e 78 764
e 78 769
e 78 790
e 78 791
e 78 793
e 78 807
e 78 808
e 78 816
e 78 828
e 78 836
e 78 851
e 78 877
e 78 883
e 78 900
e 78 901
e 78 914
e 78 922
e 78 930
e 78 943
e 78 974
e 78 976
e 78 980
e 78 989
e 79 254
e 79 260
e 79 311
e 79 312
e 79 318
e 79 322
e 79 329
e 79 349
e 79 378
e 79 380
e 79 389
e 79 394
e 79 396
e 79 409
e 79 412
e 79 415
e 79 424
e 79 425
e 79 426
e 79 433
e 79 437
e 79 445
e 79 447
e 79 449
e 79 453
e 79 465
e 79 472
e 79 477
e 79 480
e 79 498
e 79 500
e 79 509
e 79 511
e 79 521
e 79 526
e 79 543
e 79 546
e 79 589
e 79 597
e 79 600
e 79 626
e 79 636
e 79 670
e 79 675
e 79 677
e 79 702
e 79 720
e 79 742
e 79 751
e 79 754
e 79 760
e 79 765
e 79 768
e 79 791
e 79 796
e 79 798
e 79 813
e 79 826
e 79 833
e 79 837
e 79 842
e 79 845
e 79 846
e 79 858
e 79 860
e 79 863
e 79 877
e 79 884
e 79 885
e 79 903
e 79 904
e 79 915
e 79 949
e 79 954
e 79 973
e 79 976
e 79 977
e 79 991
e 79 999
e 80 258
e 80 261
e 80 267
e 80 291
e 80 301
e 80 309
e 80 317
e 80 328
e 80 333
e 80 373
e 80 385
e 80 394
e 80 417
e 80 429
e 80 443
e 80 452
e 80 458
e 80 459
e 80 476
e 80 480
e 80 493
e 80 499
e 80 513
e 80 521
e 80 531
e 80 534
e 80 538
e 80 545
e 80 563
e 80 566
e 80 572
e 80 581
e 80 585
e 80 593
e 80 600
e 80 631
e 80 668
e 80 692
e 80 708
e 80 715
e 80 720
e 80 721
e 80 727
e 80 734
e 80 737
e 80 746
e 80 751
e 80 771
e 80 772
e 80 774
e 80 798
e 80 800
e 80 802
e 80 803
e 80 809
e 80 831
e 80 842
e 80 846
e 80 858
e 80 871
e 80 883
e 80 899
e 80 909
e 80 914
e 80 920
e 80 934
e 80 956
e 80 961
e 80 963
e 80 966
e 81 257
e 81 271
e 81 285
e 81 318
e 81 325
e 81 349
e 81 365
e 81 378
e 81 380
e 81 382
e 81 398
e 81 406
e 81 419
e 81 424
e 81 436
e 81 456
e 81 463
e 81 464
e 81 465
e 81 470
e 81 474
e 81 479
e 81 503
e 81 511
e 81 517
e 81 526
e 81 527
e 81 530
e 81 545
e 81 548
e 81 557
e 81 562
e 81 566
e 81 600
e 81 614
e 81 642
e 81 646
e 81 679
e 81 688
e 81 690
e 81 710
e 81 731
e 81 768
e 81 777
e 81 781
e 81 790
e 81 809
e 81 818
e 81 846
e 81 867
e 81 869
e 81 872
e 81 899
e 81 905
e 81 922
e 81 932
e 81 944
e 81 962
e 81 967
e 81 968
e 81 969
e 81 970
e 81 971
e 81 991
e 82 274
e 82 285
e 82 313
e 82 315
e 82 337
e 82 338
e 82 340
e 82 370
e 82 400
e 82 411
e 82 416
e 82 433
e 82 435
e 82 446
e 82 449
e 82 467
e 82 492
e 82 494
e 82 497
e 82 499
e 82 500
e 82 512
e 82 553
e 82 556
e 82 557
e 82 577
e 82 580
e 82 585
e 82 595
e 82 611
e 82 643
e 82 657
e 82 661
e 82 668
e 82 673
e 82 681
e 82 698
e 82 708
e 82 709
e 82 736
e 82 748
e 82 756
e 82 757
e 82 762
e 82 772
e 82 775
e 82 789
e 82 791
e 82 806
e 82 810
e 82 815
e 82 819
e 82 856
e 82 865
e 82 877
e 82 897
e 82 905
e 82 907
e 82 909
e 82 930
e 82 934
e 82 937
e 82 966
e 82 968
e 82 970
e 82 977
e 82 990
e 82 995
e 82 999
e 83 252
e 83 257
e 83 272
e 83 278
e 83 282
e 83 287
e 83 296
e 83 323
e 83 336
e 83 348
e 83 350
e 83 358
e 83 400
e 83 403
e 83 414
e 83 415
e 83 439
e 83 448
e 83 451
e 83 455
e 83 456
e 83 464
e 83 466
e 83 470
e 83 478
e 83 483
e 83 509
e 83 515
e 83 550
e 83 558
e 83 559
e 83 566
e 83 568
e 83 573
e 83 595
e 83 600
e 83 601
e 83 622
e 83 623
e 83 625
e 83 629
e 83 644
e 83 646
e 83 655
e 83 678
e 83 698
e 83 700
e 83 708
e 83 709
e 83 716
e 83 718
e 83 719
e 83 743
e 83 755
e 83 759
e 83 761
e 83 773
e 83 774
e 83 776
e 83 780
e 83 782
e 83 785
e 83 788
e 83 791
e 83 798
e 83 799
e 83 800
e 83 801
e 83 808
e 83 809
e 83 825
e 83 837
e 83 847
e 83 849
e 83 875
e 83 878
e 83 901
e 83 903
e 83 925
e 83 962
e 83 973
e 83 987
e 84 260
e 84 261
e 84 287
e 84 288
e 84 302
e 84 324
e 84 325
e 84 338
e 84 345
e 84 356
e 84 367
e 84 373
e 84 377
e 84 389
e 84 392
e 84 418
e 84 439
e 84 446
e 84 462
e 84 467
e 84 498
e 84 509
e 84 528
e 84 529
e 84 534
e 84 543
e 84 545
e 84 558
e 84 559
e 84 569
e 84 578
e 84 580
e 84 587
e 84 602
e 84 631
e 84 633
e 84 655
e 84 667
e 84 670
e 84 684
e 84 695
e 84 700
e 84 701
e 84 704
e 84 705
e 84 734
e 84 751
e 84 761
e 84 762
e 84 770
e 84 810
e 84 832
e 84 837
e 84 850
e 84 856
e 84 858
e 84 865
e 84 872
e 84 882
e 84 895
e 84 902
e 84 924
e 84 925
e 84 930
e 84 931
e 84 936
e 84 947
e 84 950
e 84 960
e 84 977
e 84 987
e 84 991
e 84 998
e 85 252
e 85 258
e 85 261
e 85 263
e 85 279
e 85 281
e 85 283
e 85 288
e 85 296
e 85 297
e 85 311
e 85 313
e 85 330
e 85 331
e 85 333
e 85 347
e 85 351
e 85 355
e 85 357
e 85 364
e 85 366
e 85 371
e 85 375
e 85 386
e 85 391
e 85 395
e 85 407
e 85 411
e 85 413
e 85 420
e 85 423
e 85 427
e 85 432
e 85 436
e 85 441
e 85 444
e 85 445
e 85 448
e 85 464
e 85 469
e 85 471
e 85 479
e 85 492
e 85 497
e 85 505
e 85 519
e 85 520
e 85 532
e 85 535
e 85 539
e 85 556
e 85 560
e 85 564
e 85 571
e 85 589
e 85 592
e 85 593
e 85 602
e 85 622
e 85 627
e 85 637
e 85 646
e 85 655
e 85 676
e 85 681
e 85 682
e 85 691
e 85 693
e 85 694
e 85 702
e 85 712
e 85 726
e 85 743
e 85 768
e 85 769
e 85 776
e 85 802
e 85 808
e 85 855
e 85 881
e 85 894
e 85 896
e 85 898
e 85 920
e 85 934
e 85 936
e 85 945
e 85 950
e 85 957
e 85 963
e 85 965
e 85 981
e 85 999
e 86 280
e 86 284
e 86 289
e 86 296
e 86 317
e 86 327
e 86 342
e 86 343
e 86 378
e 86 385
e 86 387
e 86 391
e 86 418
e 86 420
e 86 423
e 86 447
e 86 454
e 86 461
e 86 479
e 86 486
e 86 496
e 86 500
e 86 503
e 86 504
e 86 508
e 86 515
e 86 531
e 86 536
e 86 537
e 86 544
e 86 546
e 86 553
e 86 555
e 86 558
e 86 565
e 86 569
e 86 576
e 86 607
e 86 609
e 86 616
e 86 623
e 86 631
e 86 632
e 86 647
e 86 657
e 86 674
e 86 675
e 86 679
e 86 680
e 86 698
e 86 715
e 86 724
e 86 732
e 86 747
e 86 762
e 86 764
e 86 779
e 86 780
e 86 795
e 86 806
e 86 807
e 86 809
e 86 819
e 86 823
e 86 829
e 86 839
e 86 842
e 86 856
e 86 860
e 86 862
e 86 873
e 86 882
e 86 891
e 86 897
e 86 923
e 86 938
e 86 946
e 86 951
e 86 954
e 86 955
e 86 958
e 86 961
e 86 975
e 86 981
e 86 988
e 86 989
e 86 994
e 87 261
e 87 264
e 87 275
e 87 304
e 87 309
e 87 314
e 87 321
e 87 328
e 87 359
e 87 388
e 87 390
e 87 392
e 87 394
e 87 413
e 87 414
e 87 418
e 87 442
e 87 478
e 87 480
e 87 493
e 87 507
e 87 509
e 87 513
e 87 519
e 87 523
e 87 534
e 87 537
e 87 547
e 87 561
e 87 573
e 87 622
e 87 625
e 87 638
e 87 642
e 87 644
e 87 646
e 87 653
e 87 666
e 87 667
e 87 668
e 87 688
e 87 689
e 87 690
e 87 706
e 87 726
e 87 730
e 87 739
e 87 743
e 87 797
e 87 803
e 87 810
e 87 830
e 87 860
e 87 863
e 87 877
e 87 881
e 87 890
e 87 900
e 87 908
e 87 916
e 87 917
e 87 918
e 87 928
e 87 930
e 87 949
e 87 953
e 87 962
e 87 969
e 87 976
e 87 986
e 87 989
e 87 1000
e 88 252
e 88 261
e 88 269
e 88 271
e 88 284
e 88 290
e 88 308
e 88 314
e 88 319
e 88 321
e 88 325
e 88 357
e 88 375
e 88 376
e 88 386
e 88 403
e 88 419
e 88 421
e 88 444
e 88 452
e 88 464
e 88 468
e 88 471
e 88 478
e 88 500
e 88 510
e 88 513
e 88 526
e 88 538
e 88 553
e 88 555
e 88 556
e 88 563
e 88 567
e 88 593
e 88 600
e 88 608
e 88 612
e 88 627
e 88 628
e 88 646
e 88 663
e 88 683
e 88 684
e 88 724
e 88 728
e 88 755
e 88 768
e 88 793
e 88 798
e 88 802
e 88 803
e 88 814
e 88 825
e 88 834
e 88 836
e 88 863
e 88 892
e 88 900
e 88 902
e 88 916
e 88 917
e 88 924
e 88 929
e 88 938
e 88 944
e 88 995
e 89 251
e 89 257
e 89 263
e 89 268
e 89 280
e 89 283
e 89 285
e 89 323
e 89 329
e 89 344
e 89 352
e 89 368
e 89 370
e 89 372
e 89 395
e 89 402
e 89 405
e 89 412
e 89 477
e 89 478
e 89 479
e 89 513
e 89 531
e 89 554
e 89 568
e 89 597
e 89 601
e 89 608
e 89 615
e 89 617
e 89 618
e 89 638
e 89 639
e 89 662
e 89 682
e 89 689
e 89 706
e 89 715
e 89 742
e 89 759
e 89 770
e 89 771
e 89 773
e 89 789
e 89 792
e 89 795
e 89 816
e 89 817
e 89 818
e 89 819
e 89 848
e 89 866
e 89 872
e 89 876
e 89 884
e 89 919
e 89 928
e 89 961
e 89 966
e 90 257
e 90 259
e 90 268
e 90 270
e 90 279
e 90 285
e 90 324
e 90 326
e 90 328
e 90 339
e 90 350
e 90 359
e 90 363
e 90 373
e 90 375
e 90 395
e 90 398
e 90 400
e 90 402
e 90 405
e 90 431
e 90 439
e 90 441
e 90 454
e 90 476
e 90 480
e 90 483
e 90 491
e 90 493
e 90 500
e 90 525
e 90 545
e 90 547
e 90 550
e 90 577
e 90 579
e 90 589
e 90 600
e 90 608
e 90 614
e 90 632
e 90 635
e 90 644
e 90 646
e 90 664
e 90 665
e 90 678
e 90 701
e 90 703
e 90 728
e 90 731
e 90 743
e 90 747
e 90 755
e 90 765
e 90 772
e 90 786
e 90 794
e 90 798
e 90 800
e 90 804
e 90 807
e 90 808
e 90 817
e 90 841
e 90 848
e 90 854
e 90 856
e 90 857
e 90 862
e 90 923
e 90 928
e 90 929
e 90 942
e 90 949
e 90 964
e 90 978
e 90 987
e 90 991
e 91 257
e 91 264
e 91 280
e 91 285
e 91 326
e 91 327
e 91 340
e 91 343
e 91 354
e 91 413
e 91 431
e 91 432
e 91 447
e 91 448
e 91 451
e 91 458
e 91 527
e 91 564
e 91 581
e 91 589
e 91 598
e 91 620
e 91 625
e 91 650
e 91 654
e 91 669
e 91 672
e 91 674
e 91 690
e 91 691
e 91 694
e 91 695
e 91 701
e 91 708
e 91 711
e 91 741
e 91 752
e 91 757
e 91 771
e 91 778
e 91 782
e 91 785
e 91 804
e 91 815
e 91 819
e 91 825
e 91 827
e 91 842
e 91 845
e 91 853
e 91 856
e 91 857
e 91 858
e 91 874
e 91 875
e 91 883
e 91 893
e 91 894
e 91 898
e 91 902
e 91 954
e 91 981
e 91 990
e 91 994
e 91 998
e 92 257
e 92 262
e 92 271
e 92 273
e 92 274
e 92 280
e 92 299
e 92 306
e 92 309
e 92 316
e 92 322
e 92 323
e 92 330
e 92 341
e 92 367
e 92 368
e 92 369
e 92 400
e 92 410
e 92 418
e 92 433
e 92 437
e 92 442
e 92 443
e 92 473
e 92 480
e 92 482
e 92 484
e 92 490
e 92 534
e 92 545
e 92 560
e 92 566
e 92 578
e 92 586
e 92 589
e 92 611
e 92 613
e 92 623
e 92 629
e 92 631
e 92 632
e 92 634
e 92 645
e 92 666
e 92 673
e 92 684
e 92 689
e 92 696
e 92 745
e 92 755
e 92 756
e 92 787
e 92 801
e 92 803
e 92 807
e 92 810
e 92 814
e 92 817
e 92 833
e 92 834
e 92 835
e 92 839
e 92 849
e 92 851
e 92 859
e 92 870
e 92 874
e 92 884
e 92 887
e 92 905
e 92 906
e 92 909
e 92 910
e 92 911
e 92 938
e 92 962
e 92 988
e 92 996
e 93 268
e 93 279
e 93 282
e 93 285
e 93 290
e 93 296
e 93 297
e 93 301
e 93 307
e 93 325
e 93 326
e 93 327
e 93 340
e 93 346
e 93 354
e 93 362
e 93 370
e 93 384
e 93 405
e 93 422
e 93 438
e 93 443
e 93 459
e 93 466
e 93 482
e 93 487
e 93 505
e 93 506
e 93 507
e 93 512
e 93 514
e 93 519
e 93 534
e 93 545
e 93 546
e 93 560
e 93 563
e 93 575
e 93 589
e 93 596
e 93 619
e 93 629
e 93 632
e 93 633
e 93 645
e 93 647
e 93 663
e 93 670
e 93 787
e 93 803
e 93 804
e 93 807
e 93 826
e 93 858
e 93 872
e 93 875
e 93 883
e 93 893
e 93 897
e 93 899
e 93 900
e 93 917
e 93 919
e 93 931
e 93 944
e 93 954
e 93 970
e 93 974
e 93 994
e 94 265
e 94 276
e 94 298
e 94 338
e 94 366
e 94 388
e 94 396
e 94 397
e 94 406
e 94 407
e 94 424
e 94 440
e 94 450
e 94 452
e 94 455
e 94 460
e 94 478
e 94 483
e 94 498
e 94 499
e 94 501
e 94 513
e 94 516
e 94 583
e 94 588
e 94 591
e 94 606
e 94 608
e 94 609
e 94 611
e 94 612
e 94 629
e 94 634
e 94 635
e 94 654
e 94 666
e 94 668
e 94 670
e 94 672
e 94 675
e 94 700
e 94 702
e 94 708
e 94 749
e 94 764
e 94 769
e 94 779
e 94 794
e 94 797
e 94 802
e 94 803
e 94 807
e 94 808
e 94 825
e 94 833
e 94 842
e 94 852
e 94 896
e 94 902
e 94 919
e 94 927
e 94 948
e 94 956
e 94 963
e 94 970
e 94 972
e 94 987
e 94 988
e 95 270
e 95 280
e 95 292
e 95 298
e 95 314
e 95 320
e 95 323
e 95 325
e 95 330
e 95 331
e 95 339
e 95 358
e 95 361
e 95 369
e 95 383
e 95 389
e 95 390
e 95 391
e 95 400
e 95 406
e 95 410
e 95 414
e 95 419
e 95 429
e 95 433
e 95 448
e 95 462
e 95 474
e 95 481
e 95 487
e 95 490
e 95 495
e 95 505
e 95 513
e 95 524
e 95 527
e 95 539
e 95 540
e 95 560
e 95 562
e 95 573
e 95 574
e 95 576
e 95 587
e 95 588
e 95 592
e 95 593
e 95 596
e 95 606
e 95 628
e 95 629
e 95 641
e 95 647
e 95 650
e 95 654
e 95 679
e 95 713
e 95 717
e 95 724
e 95 733
e 95 742
e 95 763
e 95 775
e 95 780
e 95 783
e 95 785
e 95 790
e 95 825
e 95 844
e 95 850
e 95 875
e 95 878
e 95 885
e 95 887
e 95 907
e 95 910
e 95 913
e 95 946
e 95 971
e 95 980
e 96 254
e 96 257
e 96 259
e 96 265
e 96 277
e 96 284
e 96 289
e 96 330
e 96 337
e 96 340
e 96 344
e 96 348
e 96 363
e 96 391
e 96 395
e 96 396
e 96 423
e 96 431
e 96 433
e 96 442
e 96 473
e 96 481
e 96 531
e 96 535
e 96 540
e 96 546
e 96 559
e 96 563
e 96 565
e 96 571
e 96 577
e 96 590
e 96 591
e 96 593
e 96 596
e 96 597
e 96 599
e 96 616
e 96 618
e 96 626
e 96 635
e 96 636
e 96 637
e 96 656
e 96 671
e 96 689
e 96 693
e 96 734
e 96 737
e 96 746
e 96 754
e 96 764
e 96 778
e 96 786
e 96 791
e 96 799
e 96 842
e 96 846
e 96 852
e 96 884
e 96 894
e 96 901
e 96 914
e 96 921
e 96 928
e 96 933
e 96 935
e 96 937
e 96 944
e 96 945
e 96 946
e 96 960
e 96 974
e 96 998
e 97 254
e 97 256
e 97 265
e 97 293
e 97 296
e 97 317
e 97 328
e 97 332
e 97 346
e 97 360
e 97 365
e 97 370
e 97 375
e 97 382
e 97 395
e 97 418
e 97 429
e 97 431
e 97 454
e 97 476
e 97 491
e 97 496
e 97 513
e 97 535
e 97 536
e 97 542
e 97 550
e 97 557
e 97 561
e 97 578
e 97 584
e 97 599
e 97 624
e 97 644
e 97 655
e 97 680
e 97 712
e 97 727
e 97 774
e 97 795
e 97 824
e 97 825
e 97 833
e 97 858
e 97 862
e 97 865
e 97 885
e 97 887
e 97 888
e 97 892
e 97 898
e 97 906
e 97 916
e 97 917
e 97 918
e 97 920
e 97 925
e 97 926
e 97 937
e 97 938
e 97 951
e 97 962
e 98 252
e 98 265
e 98 266
e 98 269
e 98 276
e 98 279
e 98 282
e 98 297
e 98 303
e 98 312
e 98 313
e 98 324
e 98 330
e 98 364
e 98 374
e 98 398
e 98 401
e 98 411
e 98 421
e 98 445
e 98 450
e 98 452
e 98 490
e 98 498
e 98 505
e 98 514
e 98 532
e 98 552
e 98 556
e 98 557
e 98 570
e 98 572
e 98 577
e 98 597
e 98 621
e 98 632
e 98 638
e 98 651
e 98 654
e 98 655
e 98 670
e 98 674
e 98 680
e 98 685
e 98 695
e 98 697
e 98 715
e 98 727
e 98 730
e 98 743
e 98 744
e 98 746
e 98 758
e 98 760
e 98 761
e 98 762
e 98 770
e 98 776
e 98 784
e 98 786
e 98 805
e 98 811
e 98 826
e 98 833
e 98 835
e 98 842
e 98 846
e 98 851
e 98 853
e 98 865
e 98 882
e 98 901
e 98 904
e 98 918
e 98 930
e 98 937
e 98 941
e 98 944
e 98 983
e 98 990
e 99 252
e 99 278
e 99 279
e 99 283
e 99 286
e 99 288
e 99 297
e 99 302
e 99 303
e 99 331
e 99 350
e 99 360
e 99 370
e 99 373
e 99 434
e 99 451
e 99 465
e 99 471
e 99 473
e 99 475
e 99 483
e 99 492
e 99 507
e 99 521
e 99 549
e 99 554
e 99 557
e 99 562
e 99 582
e 99 593
e 99 598
e 99 609
e 99 621
e 99 625
e 99 626
e 99 637
e 99 644
e 99 680
e 99 681
e 99 685
e 99 686
e 99 687
e 99 690
e 99 693
e 99 702
e 99 712
e 99 720
e 99 730
e 99 741
e 99 742
e 99 749
e 99 766
e 99 770
e 99 778
e 99 790
e 99 796
e 99 821
e 99 850
e 99 855
e 99 864
e 99 865
e 99 879
e 99 887
e 99 889
e 99 897
e 99 899
e 99 903
e 99 909
e 99 910
e 99 918
e 99 926
e 99 935
e 99 937
e 99 943
e 99 945
e 99 956
e 99 957
e 99 974
e 99 982
e 100 264
e 100 288
e 100 290
e 100 302
e 100 319
e 100 320
e 100 331
e 100 342
e 100 354
e 100 358
e 100 360
e 100 361
e 100 363
e 100 372
e 100 384
e 100 386
e 100 389
e 100 404
e 100 405
e 100 419
e 100 427
e 100 435
e 100 443
e 100 450
e 100 456
e 100 468
e 100 473
e 100 484
e 100 494
e 100 513
e 100 517
e 100 523
e 100 525
e 100 532
e 100 555
e 100 557
e 100 559
e 100 581
e 100 586
e 100 588
e 100 597
e 100 618
e 100 621
e 100 627
e 100 634
e 100 636
e 100 642
e 100 646
e 100 676
e 100 698
e 100 700
e 100 709
e 100 713
e 100 762
e 100 772
e 100 788
e 100 804
e 100 814
e 100 838
e 100 842
e 100 851
e 100 873
e 100 879
e 100 891
e 100 908
e 100 916
e 100 917
e 100 921
e 100 946
e 100 958
e 100 962
e 100 967
e 100 977
e 100 978
e 100 979
e 100 995
e 101 253
e 101 254
e 101 256
e 101 261
e 101 272
e 101 277
e 101 280
e 101 283
e 101 296
e 101 309
e 101 336
e 101 374
e 101 382
e 101 385
e 101 390
e 101 418
e 101 420
e 101 434
e 101 443
e 101 446
e 101 451
e 101 453
e 101 459
e 101 461
e 101 478
e 101 489
e 101 505
e 101 506
e 101 511
e 101 520
e 101 531
e 101 534
e 101 536
e 101 543
e 101 547
e 101 558
e 101 574
e 101 577
e 101 596
e 101 625
e 101 628
e 101 660
e 101 662
e 101 668
e 101 687
e 101 703
e 101 714
e 101 718
e 101 728
e 101 749
e 101 750
e 101 751
e 101 755
e 101 763
e 101 783
e 101 800
e 101 825
e 101 833
e 101 839
e 101 843
e 101 854
e 101 865
e 101 870
e 101 871
e 101 878
e 101 882
e 101 891
e 101 892
e 101 898
e 101 913
e 101 924
e 101 926
e 101 928
e 101 949
e 101 967
e 101 968
e 101 976
e 101 982
e 102 271
e 102 281
e 102 289
e 102 292
e 102 294
e 102 295
e 102 297
e 102 298
e 102 303
e 102 333
e 102 349
e 102 360
e 102 374
e 102 375
e 102 397
e 102 412
e 102 417
e 102 471
e 102 491
e 102 507
e 102 510
e 102 532
e 102 535
e 102 539
e 102 541
e 102 545
e 102 549
e 102 558
e 102 571
e 102 582
e 102 591
e 102 601
e 102 625
e 102 636
e 102 651
e 102 661
e 102 689
e 102 699
e 102 701
e 102 722
e 102 726
e 102 738
e 102 748
e 102 750
e 102 756
e 102 775
e 102 776
e 102 792
e 102 805
e 102 808
e 102 814
e 102 822
e 102 827
e 102 831
e 102 838
e 102 856
e 102 860
e 102 868
e 102 883
e 102 893
e 102 909
e 102 920
e 102 922
e 102 937
e 102 997
e 103 251
e 103 253
e 103 269
e 103 285
e 103 294
e 103 307
e 103 314
e 103 322
e 103 353
e 103 357
e 103 378
e 103 381
e 103 402
e 103 419
e 103 420
e 103 421
e 103 424
e 103 432
e 103 434
e 103 446
e 103 447
e 103 456
e 103 464
e 103 473
e 103 480
e 103 486
e 103 494
e 103 506
e 103 511
e 103 522
e 103 531
e 103 534
e 103 537
e 103 544
e 103 560
e 103 618
e 103 619
e 103 624
e 103 633
e 103 659
e 103 663
e 103 669
e 103 714
e 103 717
e 103 724
e 103 731
e 103 736
e 103 740
e 103 753
e 103 757
e 103 764
e 103 766
e 103 772
e 103 774
e 103 781
e 103 804
e 103 805
e 103 815
e 103 816
e 103 835
e 103 842
e 103 847
e 103 850
e 103 853
e 103 860
e 103 872
e 103 890
e 103 903
e 103 913
e 103 914
e 103 922
e 103 935
e 103 959
e 103 961
e 103 963
e 103 966
e 103 967
e 103 979
e 103 992
e 103 1000
e 104 257
e 104 261
e 104 267
e 104 279
e 104 281
e 104 290
e 104 306
e 104 325
e 104 334
e 104 339
e 104 341
e 104 350
e 104 359
e 104 368
e 104 378
e 104 383
e 104 411
e 104 427
e 104 435
e 104 446
e 104 448
e 104 450
e 104 453
e 104 466
e 104 484
e 104 496
e 104 523
e 104 524
e 104 525
e 104 527
e 104 537
e 104 541
e 104 547
e 104 554
e 104 563
e 104 588
e 104 595
e 104 610
e 104 616
e 104 624
e 104 626
e 104 643
e 104 648
e 104 668
e 104 691
e 104 701
e 104 705
e 104 719
e 104 737
e 104 764
e 104 775
e 104 777
e 104 788
e 104 789
e 104 797
e 104 804
e 104 827
e 104 859
e 104 861
e 104 862
e 104 881
e 104 902
e 104 906
e 104 914
e 104 921
e 104 936
e 104 939
e 104 944
e 104 949
e 104 954
e 104 988
e 104 989
e 104 999
e 105 271
e 105 273
e 105 275
e 105 282
e 105 288
e 105 291
e 105 297
e 105 318
e 105 330
e 105 347
e 105 348
e 105 350
e 105 372
e 105 394
e 105 410
e 105 415
e 105 421
e 105 424
e 105 425
e 105 442
e 105 452
e 105 476
e 105 479
e 105 483
e 105 492
e 105 500
e 105 506
e 105 530
e 105 547
e 105 548
e 105 551
e 105 554
e 105 556
e 105 572
e 105 578
e 105 579
e 105 582
e 105 584
e 105 594
e 105 595
e 105 613
e 105 617
e 105 621
e 105 633
e 105 638
e 105 654
e 105 666
e 105 672
e 105 674
e 105 679
e 105 693
e 105 702
e 105 721
e 105 723
e 105 742
e 105 751
e 105 763
e 105 766
e 105 777
e 105 791
e 105 799
e 105 806
e 105 819
e 105 833
e 105 835
e 105 839
e 105 842
e 105 865
e 105 873
e 105 884
e 105 906
e 105 915
e 105 925
e 105 947
e 105 949
e 105 954
e 105 958
e 105 962
e 105 984
e 105 990
e 105 993
e 106 256
e 106 266
e 106 269
e 106 281
e 106 294
e 106 296
e 106 297
e 106 298
e 106 299
e 106 305
e 106 317
e 106 324
e 106 327
e 106 332
e 106 336
e 106 341
e 106 351
e 106 367
e 106 411
e 106 412
e 106 414
e 106 419
e 106 424
e 106 435
e 106 447
e 106 456
e 106 468
e 106 481
e 106 483
e 106 487
e 106 496
e 106 498
e 106 503
e 106 506
e 106 508
e 106 511
e 106 513
e 106 520
e 106 533
e 106 539
e 106 551
e 106 552
e 106 576
e 106 577
e 106 606
e 106 642
e 106 651
e 106 659
e 106 683
e 106 690
e 106 725
e 106 741
e 106 746
e 106 749
e 106 752
e 106 753
e 106 756
e 106 758
e 106 760
e 106 776
e 106 827
e 106 829
e 106 840
e 106 844
e 106 856
e 106 867
e 106 869
e 106 879
e 106 898
e 106 910
e 106 912
e 106 923
e 106 925
e 106 954
e 106 956
e 106 962
e 106 965
e 106 972
e 106 992
e 106 995
e 107 282
e 107 314
e 107 339
e 107 360
e 107 372
e 107 374
e 107 382
e 107 383
e 107 390
e 107 406
e 107 407
e 107 408
e 107 412
e 107 413
e 107 414
e 107 430
e 107 433
e 107 441
e 107 446
e 107 447
e 107 458
e 107 461
e 107 483
e 107 512
e 107 513
e 107 516
e 107 526
e 107 531
e 107 532
e 107 534
e 107 536
e 107 545
e 107 549
e 107 555
e 107 557
e 107 572
e 107 593
e 107 621
e 107 654
e 107 658
e 107 659
e 107 660
e 107 667
e 107 668
e 107 672
e 107 682
e 107 700
e 107 708
e 107 718
e 107 727
e 107 731
e 107 737
e 107 744
e 107 748
e 107 753
e 107 755
e 107 773
e 107 774
e 107 778
e 107 783
e 107 790
e 107 818
e 107 829
e 107 846
e 107 848
e 107 854
e 107 866
e 107 885
e 107 886
e 107 905
e 107 918
e 107 927
e 107 947
e 107 963
e 107 975
e 107 982
e 107 999
e 108 259
e 108 263
e 108 264
e 108 270
e 108 281
e 108 299
e 108 309
e 108 333
e 108 339
e 108 343
e 108 350
e 108 391
e 108 395
e 108 396
e 108 404
e 108 414
e 108 418
e 108 467
e 108 483
e 108 487
e 108 492
e 108 503
e 108 505
e 108 523
e 108 555
e 108 560
e 108 568
e 108 575
e 108 606
e 108 649
e 108 660
e 108 681
e 108 702
e 108 708
e 108 722
e 108 726
e 108 731
e 108 766
e 108 769
e 108 774
e 108 776
e 108 793
e 108 801
e 108 812
e 108 813
e 108 822
e 108 850
e 108 861
e 108 870
e 108 872
e 108 879
e 108 889
e 108 898
e 108 926
e 108 936
e 108 975
e 108 980
e 108 988
e 108 995
e 109 251
e 109 255
e 109 257
e 109 264
e 109 273
e 109 281
e 109 285
e 109 286
e 109 288
e 109 291
e 109 294
e 109 295
e 109 296
e 109 299
e 109 316
e 109 319
e 109 327
e 109 330
e 109 337
e 109 339
e 109 355
e 109 357
e 109 361
e 109 363
e 109 375
e 109 376
e 109 393
e 109 400
e 109 401
e 109 402
e 109 411
e 109 412
e 109 415
e 109 416
e 109 421
e 109 442
e 109 458
e 109 461
e 109 468
e 109 475
e 109 477
e 109 507
e 109 524
e 109 535
e 109 547
e 109 559
e 109 573
e 109 594
e 109 611
e 109 622
e 109 629
e 109 636
e 109 653
e 109 674
e 109 675
e 109 678
e 109 689
e 109 698
e 109 717
e 109 733
e 109 736
e 109 743
e 109 747
e 109 748
e 109 755
e 109 758
e 109 768
e 109 769
e 109 777
e 109 808
e 109 814
e 109 822
e 109 851
e 109 852
e 109 853
e 109 865
e 109 873
e 109 879
e 109 897
e 109 906
e 109 910
e 109 917
e 109 929
e 109 930
e 109 935
e 109 938
e 109 947
e 109 958
e 109 959
e 109 963
e 109 966
e 109 970
e 109 972
e 109 976
e 109 985
e 109 1000
e 110 255
e 110 265
e 110 274
e 110 284
e 110 288
e 110 293
e 110 319
e 110 323
e 110 324
e 110 336
e 110 350
e 110 351
e 110 352
e 110 360
e 110 371
e 110 391
e 110 396
e 110 403
e 110 421
e 110 422
e 110 424
e 110 431
e 110 432
e 110 435
e 110 445
e 110 473
e 110 490
e 110 495
e 110 499
e 110 502
e 110 513
e 110 515
e 110 519
e 110 542
e 110 557
e 110 570
e 110 581
e 110 586
e 110 594
e 110 595
e 110 602
e 110 614
e 110 629
e 110 633
e 110 634
e 110 635
e 110 639
e 110 640
e 110 642
e 110 655
e 110 664
e 110 668
e 110 684
e 110 688
e 110 689
e 110 691
e 110 694
e 110 697
e 110 702
e 110 709
e 110 715
e 110 717
e 110 719
e 110 722
e 110 731
e 110 732
e 110 737
e 110 741
e 110 748
e 110 756
e 110 758
e 110 762
e 110 775
e 110 814
e 110 822
e 110 830
e 110 833
e 110 846
e 110 850
e 110 854
e 110 857
e 110 858
e 110 862
e 110 868
e 110 877
e 110 903
e 110 912
e 110 922
e 110 923
e 110 925
e 110 926
e 110 933
e 110 945
e 110 965
e 110 974
e 110 1000
e 111 275
e 111 279
e 111 294
e 111 333
e 111 335
e 111 368
e 111 378
e 111 393
e 111 404
e 111 418
e 111 421
e 111 432
e 111 441
e 111 446
e 111 456
e 111 464
e 111 510
e 111 511
e 111 513
e 111 523
e 111 524
e 111 526
e 111 531
e 111 540
e 111 569
e 111 582
e 111 591
e 111 592
e 111 600
e 111 603
e 111 609
e 111 610
e 111 611
e 111 620
e 111 629
e 111 652
e 111 665
e 111 678
e 111 684
e 111 687
e 111 701
e 111 720
e 111 721
e 111 723
e 111 726
e 111 744
e 111 754
e 111 772
e 111 776
e 111 783
e 111 784
e 111 793
e 111 796
e 111 799
e 111 804
e 111 805
e 111 808
e 111 820
e 111 827
e 111 846
e 111 860
e 111 865
e 111 866
e 111 875
e 111 880
e 111 887
e 111 889
e 111 897
e 111 915
e 111 927
e 111 931
e 111 938
e 111 943
e 111 950
e 111 951
e 111 957
e 111 981
e 111 987
e 111 1000
e 112 251
e 112 259
e 112 261
e 112 263
e 112 274
e 112 275
e 112 289
e 112 293
e 112 308
e 112 313
e 112 314
e 112 315
e 112 323
e 112 334
e 112 348
e 112 350
e 112 368
e 112 381
e 112 420
e 112 422
e 112 431
e 112 435
e 112 469
e 112 479
e 112 487
e 112 493
e 112 510
e 112 515
e 112 551
e 112 562
e 112 569
e 112 570
e 112 581
e 112 610
e 112 620
e 112 666
e 112 676
e 112 701
e 112 703
e 112 712
e 112 715
e 112 731
e 112 733
e 112 738
e 112 745
e 112 747
e 112 767
e 112 782
e 112 786
e 112 796
e 112 811
e 112 814
e 112 843
e 112 844
e 112 851
e 112 875
e 112 879
e 112 883
e 112 884
e 112 885
e 112 909
e 112 911
e 112 922
e 112 929
e 112 938
e 112 941
e 112 942
e 112 944
e 112 950
e 112 952
e 112 971
e 112 975
e 112 996
e 113 251
e 113 276
e 113 286
e 113 287
e 113 306
e 113 325
e 113 334
e 113 337
e 113 340
e 113 343
e 113 347
e 113 348
e 113 357
e 113 361
e 113 370
e 113 381
e 113 403
e 113 409
e 113 410
e 113 414
e 113 415
e 113 420
e 113 423
e 113 426
e 113 428
e 113 432
e 113 446
e 113 452
e 113 456
e 113 458
e 113 495
e 113 497
e 113 524
e 113 538
e 113 545
e 113 554
e 113 557
e 113 559
e 113 570
e 113 571
e 113 573
e 113 576
e 113 580
e 113 635
e 113 658
e 113 700
e 113 716
e 113 720
e 113 722
e 113 754
e 113 773
e 113 779
e 113 792
e 113 811
e 113 827
e 113 828
e 113 832
e 113 837
e 113 845
e 113 847
e 113 861
e 113 882
e 113 885
e 113 891
e 113 892
e 113 903
e 113 914
e 113 923
e 113 944
e 113 958
e 113 975
e 113 986
e 113 996
e 114 261
e 114 291
e 114 314
e 114 364
e 114 376
e 114 396
e 114 407
e 114 425
e 114 433
e 114 450
e 114 451
e 114 452
e 114 456
e 114 459
e 114 484
e 114 503
e 114 512
e 114 532
e 114 545
e 114 561
e 114 564
e 114 578
e 114 580
e 114 584
e 114 587
e 114 637
e 114 638
e 114 647
e 114 659
e 114 672
e 114 682
e 114 699
e 114 709
e 114 721
e 114 722
e 114 758
e 114 759
e 114 769
e 114 773
e 114 774
e 114 777
e 114 787
e 114 799
e 114 806
e 114 815
e 114 817
e 114 819
e 114 822
e 114 828
e 114 872
e 114 899
e 114 905
e 114 910
e 114 918
e 114 926
e 114 946
e 114 967
e 114 974
e 114 981
e 114 982
e 114 986
e 114 997
e 115 258
e 115 264
e 115 274
e 115 276
e 115 282
e 115 291
e 115 312
e 115 316
e 115 323
e 115 341
e 115 360
e 115 362
e 115 383
e 115 409
e 115 414
e 115 421
e 115 428
e 115 441
e 115 448
e 115 466
e 115 470
e 115 489
e 115 493
e 115 503
e 115 528
e 115 535
e 115 540
e 115 547
e 115 550
e 115 554
e 115 567
e 115 568
e 115 571
e 115 578
e 115 589
e 115 596
e 115 598
e 115 626
e 115 630
e 115 632
e 115 633
e 115 651
e 115 653
e 115 661
e 115 686
e 115 694
e 115 705
e 115 710
e 115 715
e 115 716
e 115 722
e 115 744
e 115 748
e 115 753
e 115 761
e 115 775
e 115 783
e 115 788
e 115 790
e 115 797
e 115 801
e 115 803
e 115 804
e 115 806
e 115 811
e 115 823
e 115 840
e 115 851
e 115 876
e 115 880
e 115 895
e 115 898
e 115 903
e 115 908
e 115 909
e 115 916
e 115 921
e 115 923
e 115 925
e 115 927
e 115 928
e 115 932
e 115 953
e 115 958
e 115 969
e 115 971
e 115 974
e 115 989
e 116 273
e 116 278
e 116 293
e 116 309
e 116 319
e 116 320
e 116 348
e 116 351
e 116 354
e 116 355
e 116 356
e 116 357
e 116 377
e 116 381
e 116 395
e 116 400
e 116 409
e 116 410
e 116 412
e 116 414
e 116 415
e 116 424
e 116 434
e 116 456
e 116 459
e 116 482
e 116 508
e 116 536
e 116 537
e 116 540
e 116 551
e 116 558
e 116 569
e 116 591
e 116 595
e 116 597
e 116 666
e 116 688
e 116 693
e 116 713
e 116 714
e 116 717
e 116 722
e 116 729
e 116 745
e 116 781
e 116 788
e 116 790
e 116 806
e 116 820
e 116 830
e 116 842
e 116 852
e 116 863
e 116 865
e 116 891
e 116 894
e 116 901
e 116 904
e 116 941
e 116 953
e 116 980
e 116 987
e 116 994
e 116 998
e 117 251
e 117 253
e 117 266
e 117 289
e 117 302
e 117 314
e 117 320
e 117 334
e 117 336
e 117 346
e 117 349
e 117 371
e 117 373
e 117 394
e 117 411
e 117 414
e 117 439
e 117 446
e 117 447
e 117 451
e 117 452
e 117 463
e 117 476
e 117 481
e 117 505
e 117 511
e 117 532
e 117 551
e 117 552
e 117 575
e 117 579
e 117 588
e 117 591
e 117 604
e 117 606
e 117 617
e 117 632
e 117 648
e 117 665
e 117 683
e 117 687
e 117 702
e 117 761
e 117 762
e 117 768
e 117 778
e 117 783
e 117 798
e 117 800
e 117 808
e 117 811
e 117 839
e 117 840
e 117 847
e 117 880
e 117 882
e 117 900
e 117 907
e 117 914
e 117 923
e 117 926
e 117 937
e 117 940
e 117 958
e 117 972
e 118 263
e 118 274
e 118 281
e 118 284
e 118 291
e 118 301
e 118 316
e 118 328
e 118 334
e 118 345
e 118 357
e 118 364
e 118 376
e 118 394
e 118 402
e 118 421
e 118 426
e 118 438
e 118 441
e 118 469
e 118 493
e 118 494
e 118 498
e 118 530
e 118 535
e 118 555
e 118 558
e 118 579
e 118 584
e 118 585
e 118 588
e 118 592
e 118 615
e 118 617
e 118 633
e 118 679
e 118 684
e 118 687
e 118 693
e 118 703
e 118 712
e 118 726
e 118 746
e 118 756
e 118 774
e 118 776
e 118 779
e 118 783
e 118 791
e 118 819
e 118 822
e 118 826
e 118 841
e 118 848
e 118 873
e 118 887
e 118 894
e 118 899
e 118 904
e 118 915
e 118 918
e 118 925
e 118 928
e 118 942
e 118 950
e 118 989
e 119 259
e 119 261
e 119 264
e 119 265
e 119 271
e 119 278
e 119 307
e 119 325
e 119 337
e 119 356
e 119 360
e 119 367
e 119 386
e 119 395
e 119 398
e 119 402
e 119 418
e 119 454
e 119 470
e 119 474
e 119 475
e 119 477
e 119 491
e 119 505
e 119 517
e 119 523
e 119 535
e 119 543
e 119 553
e 119 559
e 119 565
e 119 568
e 119 578
e 119 580
e 119 586
e 119 597
e 119 600
e 119 625
e 119 654
e 119 663
e 119 678
e 119 689
e 119 707
e 119 717
e 119 721
e 119 723
e 119 725
e 119 733
e 119 749
e 119 752
e 119 753
e 119 769
e 119 770
e 119 772
e 119 774
e 119 804
e 119 821
e 119 835
e 119 845
e 119 849
e 119 859
e 119 877
e 119 886
e 119 922
e 119 926
e 119 934
e 119 938
e 119 967
e 119 977
e 119 987
e 119 994
e 119 997
e 120 271
e 120 276
e 120 278
e 120 283
e 120 284
e 120 298
e 120 302
e 120 309
e 120 316
e 120 329
e 120 335
e 120 348
e 120 354
e 120 356
e 120 361
e 120 363
e 120 365
e 120 376
e 120 382
e 120 400
e 120 401
e 120 434
e 120 438
e 120 447
e 120 464
e 120 473
e 120 478
e 120 486
e 120 506
e 120 510
e 120 530
e 120 534
e 120 548
e 120 554
e 120 557
e 120 565
e 120 567
e 120 568
e 120 587
e 120 592
e 120 595
e 120 646
e 120 656
e 120 661
e 120 664
e 120 678
e 120 681
e 120 704
e 120 709
e 120 727
e 120 735
e 120 753
e 120 775
e 120 776
e 120 791
e 120 796
e 120 818
e 120 839
e 120 857
e 120 861
e 120 881
e 120 890
e 120 896
e 120 904
e 120 918
e 120 931
e 120 945
e 120 951
e 120 958
e 120 963
e 120 966
e 120 981
e 120 987
e 120 991
e 121 252
e 121 253
e 121 266
e 121 283
e 121 288
e 121 292
e 121 293
e 121 296
e 121 310
e 121 313
e 121 316
e 121 326
e 121 327
e 121 346
e 121 355
e 121 356
e 121 375
e 121 376
e 121 377
e 121 382
e 121 393
e 121 405
e 121 433
e 121 457
e 121 461
e 121 462
e 121 481
e 121 487
e 121 493
e 121 495
e 121 502
e 121 504
e 121 505
e 121 508
e 121 522
e 121 525
e 121 532
e 121 535
e 121 536
e 121 545
e 121 547
e 121 555
e 121 559
e 121 601
e 121 606
e 121 612
e 121 621
e 121 627
e 121 643
e 121 649
e 121 669
e 121 683
e 121 698
e 121 701
e 121 703
e 121 710
e 121 713
e 121 718
e 121 727
e 121 738
e 121 746
e 121 754
e 121 777
e 121 781
e 121 787
e 121 790
e 121 799
e 121 800
e 121 803
e 121 813
e 121 815
e 121 818
e 121 852
e 121 883
e 121 895
e 121 917
e 121 943
e 121 976
e 121 984
e 121 992
e 121 997
e 121 999
e 121 1000
e 122 254
e 122 272
e 122 280
e 122 284
e 122 301
e 122 308
e 122 316
e 122 319
e 122 320
e 122 329
e 122 330
e 122 339
e 122 340
e 122 345
e 122 369
e 122 372
e 122 375
e 122 417
e 122 421
e 122 435
e 122 437
e 122 457
e 122 459
e 122 465
e 122 474
e 122 475
e 122 481
e 122 483
e 122 485
e 122 488
e 122 493
e 122 518
e 122 523
e 122 530
e 122 533
e 122 547
e 122 552
e 122 554
e 122 561
e 122 562
e 122 573
e 122 584
e 122 606
e 122 610
e 122 612
e 122 623
e 122 646
e 122 652
e 122 658
e 122 660
e 122 671
e 122 695
e 122 699
e 122 703
e 122 712
e 122 715
e 122 726
e 122 729
e 122 736
e 122 744
e 122 752
e 122 757
e 122 768
e 122 769
e 122 779
e 122 788
e 122 806
e 122 807
e 122 808
e 122 819
e 122 848
e 122 853
e 122 875
e 122 886
e 122 900
e 122 908
e 122 928
e 122 930
e 122 939
e 122 946
e 122 959
e 122 970
e 122 978
e 122 983
e 122 984
e 122 988
e 122 998
e 123 251
e 123 256
e 123 263
e 123 268
e 123 290
e 123 295
e 123 305
e 123 310
e 123 317
e 123 321
e 123 327
e 123 353
e 123 361
e 123 362
e 123 368
e 123 374
e 123 388
e 123 395
e 123 411
e 123 433
e 123 448
e 123 451
e 123 462
e 123 477
e 123 500
e 123 506
e 123 516
e 123 522
e 123 540
e 123 553
e 123 556
e 123 570
e 123 588
e 123 591
e 123 594
e 123 604
e 123 613
e 123 622
e 123 633
e 123 644
e 123 647
e 123 650
e 123 653
e 123 656
e 123 659
e 123 664
e 123 671
e 123 703
e 123 714
e 123 727
e 123 734
e 123 737
e 123 739
e 123 754
e 123 778
e 123 782
e 123 787
e 123 788
e 123 804
e 123 817
e 123 845
e 123 864
e 123 870
e 123 875
e 123 880
e 123 888
e 123 891
e 123 925
e 123 950
e 123 954
e 123 955
e 123 966
e 123 981
e 123 989
e 123 992
e 123 998
e 124 251
e 124 271
e 124 285
e 124 291
e 124 294
e 124 300
e 124 312
e 124 317
e 124 319
e 124 341
e 124 348
e 124 351
e 124 354
e 124 355
e 124 358
e 124 363
e 124 393
e 124 402
e 124 404
e 124 421
e 124 427
e 124 450
e 124 451
e 124 465
e 124 474
e 124 480
e 124 498
e 124 499
e 124 500
e 124 524
e 124 536
e 124 537
e 124 544
e 124 548
e 124 560
e 124 561
e 124 563
e 124 567
e 124 582
e 124 585
e 124 595
e 124 606
e 124 613
e 124 644
e 124 663
e 124 669
e 124 683
e 124 684
e 124 689
e 124 690
e 124 710
e 124 712
e 124 724
e 124 732
e 124 745
e 124 771
e 124 793
e 124 797
e 124 820
e 124 869
e 124 879
e 124 887
e 124 899
e 124 901
e 124 906
e 124 918
e 124 922
e 124 923
e 124 928
e 124 933
e 124 938
e 124 943
e 124 947
e 124 971
e 124 975
e 124 978
e 124 986
e 124 990
e 124 997
e 124 999
e 125 268
e 125 286
e 125 287
e 125 290
e 125 300
e 125 319
e 125 337
e 125 342
e 125 382
e 125 398
e 125 402
e 125 408
e 125 415
e 125 418
e 125 420
e 125 421
e 125 455
e 125 459
e 125 460
e 125 494
e 125 496
e 125 510
e 125 515
e 125 524
e 125 537
e 125 557
e 125 567
e 125 585
e 125 587
e 125 595
e 125 603
e 125 606
e 125 618
e 125 625
e 125 642
e 125 646
e 125 649
e 125 651
e 125 657
e 125 686
e 125 687
e 125 706
e 125 718
e 125 720
e 125 733
e 125 738
e 125 748
e 125 751
e 125 777
e 125 778
e 125 785
e 125 786
e 125 807
e 125 808
e 125 836
e 125 839
e 125 848
e 125 849
e 125 856
e 125 866
e 125 867
e 125 888
e 125 909
e 125 933
e 125 949
e 125 954
e 125 970
e 125 997
e 126 280
e 126 290
e 126 299
e 126 303
e 126 309
e 126 317
e 126 321
e 126 325
e 126 326
e 126 330
e 126 359
e 126 360
e 126 364
e 126 369
e 126 383
e 126 391
e 126 398
e 126 402
e 126 403
e 126 411
e 126 427
e 126 434
e 126 437
e 126 443
e 126 452
e 126 453
e 126 454
e 126 455
e 126 457
e 126 464
e 126 480
e 126 493
e 126 514
e 126 516
e 126 531
e 126 542
e 126 543
e 126 552
e 126 553
e 126 564
e 126 565
e 126 573
e 126 576
e 126 584
e 126 587
e 126 589
e 126 590
e 126 593
e 126 594
e 126 596
e 126 601
e 126 610
e 126 622
e 126 623
e 126 644
e 126 646
e 126 648
e 126 654
e 126 666
e 126 672
e 126 680
e 126 681
e 126 700
e 126 716
e 126 742
e 126 744
e 126 753
e 126 766
e 126 781
e 126 792
e 126 793
e 126 810
e 126 824
e 126 836
e 126 871
e 126 873
e 126 884
e 126 893
e 126 897
e 126 902
e 126 914
e 126 920
e 126 929
e 126 956
e 126 957
e 126 968
e 126 998
e 127 260
e 127 266
e 127 287
e 127 319
e 127 321
e 127 322
e 127 328
e 127 331
e 127 334
e 127 346
e 127 374
e 127 387
e 127 396
e 127 410
e 127 417
e 127 420
e 127 444
e 127 448
e 127 459
e 127 464
e 127 474
e 127 482
e 127 492
e 127 494
e 127 496
e 127 517
e 127 520
e 127 527
e 127 528
e 127 542
e 127 544
e 127 564
e 127 573
e 127 583
e 127 589
e 127 590
e 127 591
e 127 592
e 127 595
e 127 613
e 127 622
e 127 625
e 127 631
e 127 664
e 127 677
e 127 678
e 127 728
e 127 736
e 127 737
e 127 742
e 127 752
e 127 789
e 127 790
e 127 792
e 127 796
e 127 802
e 127 822
e 127 823
e 127 833
e 127 847
e 127 848
e 127 862
e 127 873
e 127 880
e 127 889
e 127 894
e 127 901
e 127 910
e 127 916
e 127 918
e 127 930
e 127 941
e 127 949
e 127 950
e 127 951
e 127 953
e 127 966
e 127 982
e 127 988
e 127 989
e 128 251
e 128 252
e 128 256
e 128 268
e 128 277
e 128 290
e 128 292
e 128 294
e 128 304
e 128 320
e 128 330
e 128 335
e 128 341
e 128 349
e 128 350
e 128 395
e 128 411
e 128 425
e 128 426
e 128 446
e 128 504
e 128 527
e 128 529
e 128 545
e 128 560
e 128 563
e 128 568
e 128 585
e 128 605
e 128 607
e 128 614
e 128 617
e 128 627
e 128 630
e 128 636
e 128 645
e 128 648
e 128 657
e 128 684
e 128 695
e 128 711
e 128 717
e 128 725
e 128 739
e 128 741
e 128 768
e 128 771
e 128 783
e 128 797
e 128 836
e 128 840
e 128 842
e 128 847
e 128 850
e 128 852
e 128 853
e 128 855
e 128 861
e 128 923
e 128 951
e 128 954
e 128 955
e 128 970
e 128 987
e 128 1000
e 129 255
e 129 270
e 129 292
e 129 304
e 129 322
e 129 323
e 129 325
e 129 350
e 129 358
e 129 371
e 129 378
e 129 384
e 129 390
e 129 396
e 129 401
e 129 402
e 129 409
e 129 424
e 129 436
e 129 442
e 129 468
e 129 484
e 129 492
e 129 532
e 129 535
e 129 547
e 129 550
e 129 560
e 129 570
e 129 572
e 129 577
e 129 583
e 129 605
e 129 609
e 129 614
e 129 615
e 129 628
e 129 629
e 129 636
e 129 639
e 129 645
e 129 647
e 129 669
e 129 717
e 129 719
e 129 742
e 129 774
e 129 804
e 129 809
e 129 811
e 129 816
e 129 820
e 129 828
e 129 830
e 129 867
e 129 889
e 129 894
e 129 898
e 129 900
e 129 916
e 129 922
e 129 925
e 129 937
e 129 961
e 129 980
e 130 255
e 130 279
e 130 300
e 130 303
e 130 319
e 130 349
e 130 351
e 130 357
e 130 358
e 130 369
e 130 377
e 130 380
e 130 407
e 130 414
e 130 418
e 130 424
e 130 425
e 130 426
e 130 444
e 130 454
e 130 462
e 130 473
e 130 474
e 130 484
e 130 503
e 130 505
e 130 511
e 130 512
e 130 516
e 130 545
e 130 555
e 130 563
e 130 590
e 130 591
e 130 593
e 130 594
e 130 602
e 130 604
e 130 621
e 130 625
e 130 627
e 130 642
e 130 651
e 130 661
e 130 663
e 130 672
e 130 681
e 130 684
e 130 688
e 130 705
e 130 711
e 130 719
e 130 724
e 130 742
e 130 746
e 130 752
e 130 764
e 130 789
e 130 793
e 130 802
e 130 808
e 130 814
e 130 817
e 130 820
e 130 825
e 130 836
e 130 843
e 130 850
e 130 857
e 130 866
e 130 875
e 130 879
e 130 894
e 130 895
e 130 907
e 130 923
e 130 925
e 130 926
e 130 937
e 130 939
e 130 943
e 130 945
e 130 964
e 130 965
e 130 967
e 130 971
e 130 974
e 130 983
e 130 986
e 130 989
e 131 257
e 131 269
e 131 273
e 131 296
e 131 300
e 131 304
e 131 318
e 131 322
e 131 335
e 131 341
e 131 354
e 131 363
e 131 367
e 131 371
e 131 373
e 131 386
e 131 388
e 131 391
e 131 424
e 131 429
e 131 434
e 131 449
e 131 455
e 131 461
e 131 471
e 131 484
e 131 500
e 131 506
e 131 525
e 131 527
e 131 565
e 131 578
e 131 580
e 131 581
e 131 604
e 131 614
e 131 643
e 131 661
e 131 670
e 131 682
e 131 683
e 131 696
e 131 703
e 131 709
e 131 711
e 131 717
e 131 724
e 131 736
e 131 738
e 131 739
e 131 743
e 131 770
e 131 804
e 131 815
e 131 819
e 131 821
e 131 831
e 131 843
e 131 857
e 131 858
e 131 871
e 131 877
e 131 879
e 131 881
e 131 884
e 131 899
e 131 901
e 131 902
e 131 915
e 131 923
e 131 926
e 131 928
e 131 930
e 131 939
e 131 988
e 131 993
e 131 994
e 132 254
e 132 278
e 132 280
e 132 286
e 132 317
e 132 319
e 132 324
e 132 326
e 132 334
e 132 338
e 132 352
e 132 385
e 132 414
e 132 418
e 132 422
e 132 436
e 132 444
e 132 482
e 132 488
e 132 491
e 132 512
e 132 516
e 132 529
e 132 534
e 132 543
e 132 549
e 132 560
e 132 563
e 132 571
e 132 578
e 132 583
e 132 590
e 132 610
e 132 611
e 132 613
e 132 618
e 132 620
e 132 633
e 132 636
e 132 652
e 132 660
e 132 675
e 132 680
e 132 701
e 132 704
e 132 706
e 132 709
e 132 711
e 132 728
e 132 732
e 132 734
e 132 737
e 132 738
e 132 742
e 132 746
e 132 748
e 132 787
e 132 799
e 132 807
e 132 815
e 132 821
e 132 836
e 132 861
e 132 866
e 132 872
e 132 889
e 132 896
e 132 904
e 132 925
e 132 926
e 132 939
e 132 944
e 132 949
e 132 962
e 132 966
e 133 278
e 133 285
e 133 291
e 133 293
e 133 301
e 133 343
e 133 348
e 133 354
e 133 362
e 133 372
e 133 405
e 133 423
e 133 425
e 133 437
e 133 445
e 133 451
e 133 459
e 133 463
e 133 467
e 133 489
e 133 500
e 133 530
e 133 531
e 133 532
e 133 560
e 133 566
e 133 587
e 133 599
e 133 600
e 133 601
e 133 603
e 133 604
e 133 615
e 133 623
e 133 625
e 133 626
e 133 639
e 133 655
e 133 676
e 133 683
e 133 699
e 133 702
e 133 705
e 133 712
e 133 741
e 133 752
e 133 755
e 133 770
e 133 776
e 133 778
e 133 780
e 133 791
e 133 800
e 133 810
e 133 812
e 133 819
e 133 850
e 133 854
e 133 863
e 133 868
e 133 872
e 133 873
e 133 877
e 133 878
e 133 903
e 133 904
e 133 934
e 133 943
e 133 954
e 133 958
e 133 964
e 133 967
e 133 974
e 133 976
e 133 980
e 133 981
e 134 264
e 134 272
e 134 274
e 134 290
e 134 291
e 134 315
e 134 346
e 134 348
e 134 393
e 134 402
e 134 406
e 134 407
e 134 424
e 134 461
e 134 462
e 134 464
e 134 497
e 134 507
e 134 512
e 134 531
e 134 571
e 134 620
e 134 660
e 134 663
e 134 665
e 134 671
e 134 675
e 134 688
e 134 692
e 134 704
e 134 720
e 134 722
e 134 726
e 134 730
e 134 733
e 134 763
e 134 771
e 134 776
e 134 777
e 134 782
e 134 795
e 134 836
e 134 845
e 134 873
e 134 881
e 134 885
e 134 896
e 134 900
e 134 902
e 134 912
e 134 935
e 134 952
e 134 963
e 134 969
e 134 973
e 134 989
e 134 990
e 134 995
e 135 263
e 135 273
e 135 280
e 135 292
e 135 306
e 135 321
e 135 362
e 135 378
e 135 379
e 135 380
e 135 397
e 135 414
e 135 433
e 135 436
e 135 449
e 135 451
e 135 476
e 135 482
e 135 509
e 135 518
e 135 544
e 135 557
e 135 574
e 135 585
e 135 592
e 135 593
e 135 605
e 135 621
e 135 623
e 135 630
e 135 653
e 135 658
e 135 668
e 135 671
e 135 680
e 135 681
e 135 683
e 135 692
e 135 694
e 135 696
e 135 703
e 135 713
e 135 716
e 135 726
e 135 729
e 135 734
e 135 740
e 135 747
e 135 754
e 135 777
e 135 795
e 135 798
e 135 801
e 135 809
e 135 820
e 135 828
e 135 834
e 135 837
e 135 839
e 135 879
e 135 888
e 135 905
e 135 910
e 135 913
e 135 929
e 135 940
e 135 958
e 135 974
e 135 987
e 136 273
e 136 279
e 136 280
e 136 283
e 136 287
e 136 288
e 136 290
e 136 298
e 136 309
e 136 336
e 136 338
e 136 351
e 136 359
e 136 360
e 136 408
e 136 412
e 136 415
e 136 422
e 136 424
e 136 445
e 136 447
e 136 480
e 136 495
e 136 499
e 136 509
e 136 527
e 136 534
e 136 549
e 136 566
e 136 567
e 136 575
e 136 580
e 136 589
e 136 591
e 136 625
e 136 627
e 136 632
e 136 633
e 136 669
e 136 675
e 136 693
e 136 701
e 136 740
e 136 746
e 136 788
e 136 789
e 136 832
e 136 839
e 136 842
e 136 858
e 136 883
e 136 901
e 136 922
e 136 935
e 136 961
e 136 962
e 136 968
e 136 972
e 136 982
e 136 1000
e 137 253
e 137 260
e 137 266
e 137 301
e 137 309
e 137 315
e 137 333
e 137 347
e 137 366
e 137 377
e 137 378
e 137 381
e 137 391
e 137 397
e 137 398
e 137 401
e 137 403
e 137 423
e 137 424
e 137 425
e 137 440
e 137 461
e 137 462
e 137 470
e 137 476
e 137 486
e 137 539
e 137 541
e 137 555
e 137 562
e 137 579
e 137 580
e 137 582
e 137 583
e 137 596
e 137 598
e 137 601
e 137 604
e 137 607
e 137 608
e 137 616
e 137 634
e 137 653
e 137 654
e 137 670
e 137 679
e 137 687
e 137 700
e 137 709
e 137 710
e 137 731
e 137 745
e 137 746
e 137 756
e 137 777
e 137 793
e 137 796
e 137 800
e 137 821
e 137 887
e 137 930
e 137 936
e 137 961
e 137 967
e 137 977
e 137 987
e 138 252
e 138 262
e 138 278
e 138 282
e 138 290
e 138 296
e 138 305
e 138 311
e 138 331
e 138 335
e 138 340
e 138 352
e 138 360
e 138 364
e 138 375
e 138 376
e 138 379
e 138 391
e 138 393
e 138 394
e 138 404
e 138 410
e 138 428
e 138 454
e 138 462
e 138 474
e 138 486
e 138 497
e 138 500
e 138 510
e 138 522
e 138 528
e 138 538
e 138 549
e 138 556
e 138 560
e 138 571
e 138 586
e 138 593
e 138 595
e 138 615
e 138 616
e 138 631
e 138 642
e 138 652
e 138 653
e 138 680
e 138 686
e 138 689
e 138 694
e 138 696
e 138 703
e 138 722
e 138 725
e 138 728
e 138 730
e 138 740
e 138 757
e 138 774
e 138 782
e 138 785
e 138 790
e 138 791
e 138 804
e 138 825
e 138 827
e 138 847
e 138 875
e 138 887
e 138 903
e 138 906
e 138 907
e 138 915
e 138 923
e 138 933
e 138 935
e 138 959
e 138 962
e 138 981
e 138 984
e 138 987
e 138 998
e 139 271
e 139 274
e 139 283
e 139 284
e 139 296
e 139 309
e 139 317
e 139 318
e 139 319
e 139 320
e 139 330
e 139 334
e 139 343
e 139 344
e 139 349
e 139 353
e 139 360
e 139 369
e 139 373
e 139 380
e 139 389
e 139 391
e 139 392
e 139 401
e 139 417
e 139 419
e 139 474
e 139 488
e 139 501
e 139 531
e 139 532
e 139 540
e 139 541
e 139 552
e 139 571
e 139 577
e 139 581
e 139 582
e 139 583
e 139 597
e 139 618
e 139 620
e 139 633
e 139 653
e 139 661
e 139 670
e 139 704
e 139 725
e 139 728
e 139 729
e 139 735
e 139 746
e 139 753
e 139 762
e 139 765
e 139 775
e 139 793
e 139 800
e 139 806
e 139 809
e 139 811
e 139 818
e 139 828
e 139 829
e 139 853
e 139 859
e 139 896
e 139 907
e 139 914
e 139 926
e 139 938
e 139 963
e 139 979
e 139 982
e 140 261
e 140 263
e 140 272
e 140 282
e 140 288
e 140 289
e 140 298
e 140 301
e 140 302
e 140 321
e 140 341
e 140 354
e 140 363
e 140 383
e 140 384
e 140 388
e 140 397
e 140 398
e 140 403
e 140 404
e 140 411
e 140 437
e 140 440
e 140 447
e 140 453
e 140 461
e 140 488
e 140 507
e 140 508
e 140 531
e 140 541
e 140 562
e 140 591
e 140 614
e 140 621
e 140 625
e 140 645
e 140 655
e 140 662
e 140 664
e 140 676
e 140 679
e 140 681
e 140 689
e 140 690
e 140 715
e 140 719
e 140 736
e 140 800
e 140 807
e 140 814
e 140 832
e 140 855
e 140 874
e 140 892
e 140 900
e 140 919
e 140 920
e 140 929
e 140 963
e 140 966
e 140 967
e 140 968
e 140 995
e 141 282
e 141 312
e 141 313
e 141 319
e 141 324
e 141 325
e 141 333
e 141 334
e 141 354
e 141 360
e 141 377
e 141 387
e 141 404
e 141 407
e 141 408
e 141 414
e 141 422
e 141 427
e 141 430
e 141 442
e 141 449
e 141 451
e 141 460
e 141 462
e 141 466
e 141 470
e 141 476
e 141 480
e 141 482
e 141 494
e 141 500
e 141 518
e 141 520
e 141 525
e 141 531
e 141 561
e 141 568
e 141 597
e 141 607
e 141 625
e 141 630
e 141 639
e 141 649
e 141 653
e 141 655
e 141 670
e 141 677
e 141 713
e 141 743
e 141 751
e 141 753
e 141 757
e 141 775
e 141 790
e 141 798
e 141 801
e 141 818
e 141 825
e 141 829
e 141 830
e 141 837
e 141 860
e 141 866
e 141 876
e 141 882
e 141 891
e 141 905
e 141 906
e 141 909
e 141 910
e 141 914
e 141 939
e 141 964
e 141 981
e 141 983
e 141 991
e 141 995
e 142 255
e 142 264
e 142 269
e 142 289
e 142 290
e 142 292
e 142 301
e 142 305
e 142 307
e 142 318
e 142 339
e 142 344
e 142 345
e 142 353
e 142 371
e 142 382
e 142 390
e 142 400
e 142 424
e 142 425
e 142 437
e 142 438
e 142 457
e 142 468
e 142 474
e 142 483
e 142 491
e 142 492
e 142 516
e 142 519
e 142 524
e 142 529
e 142 530
e 142 547
e 142 558
e 142 583
e 142 599
e 142 608
e 142 611
e 142 615
e 142 628
e 142 652
e 142 669
e 142 673
e 142 690
e 142 697
e 142 701
e 142 723
e 142 730
e 142 738
e 142 743
e 142 762
e 142 771
e 142 776
e 142 783
e 142 786
e 142 797
e 142 813
e 142 836
e 142 841
e 142 843
e 142 861
e 142 875
e 142 898
e 142 906
e 142 909
e 142 929
e 142 933
e 142 970
e 142 973
e 142 977
e 142 979
e 143 267
e 143 282
e 143 289
e 143 293
e 143 297
e 143 300
e 143 301
e 143 303
e 143 316
e 143 323
e 143 348
e 143 349
e 143 368
e 143 369
e 143 371
e 143 374
e 143 387
e 143 398
e 143 412
e 143 422
e 143 446
e 143 458
e 143 488
e 143 502
e 143 504
e 143 508
e 143 510
e 143 537
e 143 554
e 143 565
e 143 574
e 143 581
e 143 605
e 143 611
e 143 634
e 143 665
e 143 674
e 143 676
e 143 682
e 143 688
e 143 693
e 143 704
e 143 712
e 143 713
e 143 716
e 143 718
e 143 719
e 143 722
e 143 725
e 143 727
e 143 729
e 143 747
e 143 750
e 143 755
e 143 763
e 143 771
e 143 773
e 143 792
e 143 812
e 143 817
e 143 824
e 143 861
e 143 872
e 143 881
e 143 889
e 143 897
e 143 906
e 143 926
e 143 929
e 143 933
e 143 953
e 143 957
e 143 964
e 143 966
e 143 971
e 143 974
e 143 975
e 143 988
e 143 991
e 144 252
e 144 255
e 144 305
e 144 306
e 144 314
e 144 328
e 144 337
e 144 347
e 144 350
e 144 353
e 144 366
e 144 378
e 144 380
e 144 402
e 144 474
e 144 482
e 144 483
e 144 488
e 144 492
e 144 499
e 144 508
e 144 521
e 144 535
e 144 543
e 144 561
e 144 562
e 144 565
e 144 573
e 144 597
e 144 598
e 144 609
e 144 615
e 144 619
e 144 633
e 144 655
e 144 687
e 144 691
e 144 693
e 144 712
e 144 731
e 144 749
e 144 781
e 144 819
e 144 820
e 144 831
e 144 841
e 144 852
e 144 862
e 144 890
e 144 897
e 144 909
e 144 918
e 144 945
e 144 955
e 144 959
e 144 962
e 144 984
e 144 986
e 145 253
e 145 259
e 145 271
e 145 276
e 145 277
e 145 278
e 145 291
e 145 295
e 145 298
e 145 307
e 145 328
e 145 333
e 145 340
e 145 379
e 145 388
e 145 390
e 145 400
e 145 412
e 145 413
e 145 422
e 145 436
e 145 440
e 145 448
e 145 455
e 145 456
e 145 468
e 145 495
e 145 496
e 145 508
e 145 523
e 145 546
e 145 548
e 145 549
e 145 555
e 145 573
e 145 585
e 145 588
e 145 605
e 145 610
e 145 619
e 145 630
e 145 635
e 145 685
e 145 695
e 145 703
e 145 710
e 145 721
e 145 729
e 145 736
e 145 738
e 145 741
e 145 752
e 145 757
e 145 760
e 145 779
e 145 787
e 145 792
e 145 828
e 145 833
e 145 837
e 145 842
e 145 866
e 145 869
e 145 883
e 145 888
e 145 896
e 145 897
e 145 905
e 145 912
e 145 915
e 145 921
e 145 925
e 145 954
e 145 957
e 145 960
e 145 961
e 145 969
e 146 262
e 146 279
e 146 290
e 146 305
e 146 317
e 146 342
e 146 348
e 146 353
e 146 360
e 146 364
e 146 367
e 146 370
e 146 371
e 146 373
e 146 379
e 146 394
e 146 407
e 146 419
e 146 420
e 146 422
e 146 430
e 146 433
e 146 436
e 146 458
e 146 470
e 146 488
e 146 509
e 146 511
e 146 515
e 146 544
e 146 568
e 146 574
e 146 581
e 146 584
e 146 590
e 146 594
e 146 602
e 146 607
e 146 609
e 146 620
e 146 637
e 146 645
e 146 659
e 146 661
e 146 664
e 146 677
e 146 679
e 146 688
e 146 692
e 146 701
e 146 702
e 146 729
e 146 732
e 146 733
e 146 735
e 146 761
e 146 767
e 146 772
e 146 778
e 146 779
e 146 793
e 146 808
e 146 840
e 146 863
e 146 867
e 146 870
e 146 884
e 146 887
e 146 895
e 146 898
e 146 930
e 146 948
e 146 953
e 146 980
e 146 995
e 146 998
e 147 256
e 147 257
e 147 272
e 147 279
e 147 281
e 147 287
e 147 291
e 147 304
e 147 315
e 147 343
e 147 354
e 147 364
e 147 377
e 147 384
e 147 386
e 147 388
e 147 401
e 147 408
e 147 412
e 147 418
e 147 419
e 147 420
e 147 421
e 147 428
e 147 438
e 147 440
e 147 444
e 147 452
e 147 453
e 147 477
e 147 480
e 147 482
e 147 486
e 147 496
e 147 509
e 147 514
e 147 522
e 147 525
e 147 526
e 147 535
e 147 541
e 147 575
e 147 584
e 147 594
e 147 600
e 147 602
e 147 630
e 147 631
e 147 632
e 147 635
e 147 637
e 147 639
e 147 666
e 147 667
e 147 669
e 147 675
e 147 712
e 147 713
e 147 721
e 147 722
e 147 734
e 147 742
e 147 770
e 147 806
e 147 816
e 147 820
e 147 822
e 147 873
e 147 885
e 147 890
e 147 915
e 147 919
e 147 929
e 147 936
e 147 966
e 147 981
e 148 256
e 148 264
e 148 265
e 148 286
e 148 289
e 148 295
e 148 321
e 148 337
e 148 343
e 148 345
e 148 375
e 148 379
e 148 381
e 148 386
e 148 392
e 148 393
e 148 395
e 148 406
e 148 409
e 148 415
e 148 417
e 148 437
e 148 443
e 148 447
e 148 475
e 148 487
e 148 497
e 148 502
e 148 520
e 148 531
e 148 538
e 148 540
e 148 551
e 148 559
e 148 583
e 148 612
e 148 655
e 148 656
e 148 657
e 148 659
e 148 671
e 148 687
e 148 718
e 148 722
e 148 738
e 148 746
e 148 750
e 148 771
e 148 773
e 148 779
e 148 794
e 148 812
e 148 820
e 148 824
e 148 838
e 148 850
e 148 865
e 148 874
e 148 881
e 148 889
e 148 893
e 148 909
e 148 928
e 148 944
e 148 954
e 148 987
e 149 258
e 149 261
e 149 265
e 149 280
e 149 283
e 149 307
e 149 316
e 149 338
e 149 356
e 149 363
e 149 367
e 149 392
e 149 407
e 149 420
e 149 453
e 149 471
e 149 489
e 149 501
e 149 526
e 149 530
e 149 535
e 149 573
e 149 587
e 149 599
e 149 612
e 149 620
e 149 621
e 149 622
e 149 624
e 149 633
e 149 641
e 149 645
e 149 650
e 149 654
e 149 661
e 149 664
e 149 665
e 149 672
e 149 694
e 149 696
e 149 698
e 149 700
e 149 703
e 149 705
e 149 707
e 149 713
e 149 714
e 149 729
e 149 751
e 149 763
e 149 776
e 149 798
e 149 818
e 149 823
e 149 834
e 149 848
e 149 850
e 149 853
e 149 858
e 149 859
e 149 860
e 149 867
e 149 868
e 149 869
e 149 880
e 149 889
e 149 905
e 149 914
e 149 917
e 149 924
e 149 944
e 149 945
e 149 952
e 149 959
e 149 968
e 149 992
e 149 993
e 150 254
e 150 271
e 150 302
e 150 322
e 150 323
e 150 360
e 150 361
e 150 377
e 150 380
e 150 389
e 150 400
e 150 402
e 150 413
e 150 419
e 150 428
e 150 438
e 150 450
e 150 469
e 150 478
e 150 485
e 150 491
e 150 493
e 150 503
e 150 514
e 150 521
e 150 529
e 150 533
e 150 547
e 150 557
e 150 565
e 150 582
e 150 611
e 150 617
e 150 631
e 150 653
e 150 657
e 150 668
e 150 671
e 150 685
e 150 690
e 150 692
e 150 719
e 150 727
e 150 748
e 150 756
e 150 765
e 150 773
e 150 783
e 150 784
e 150 793
e 150 807
e 150 851
e 150 854
e 150 855
e 150 867
e 150 886
e 150 894
e 150 899
e 150 909
e 150 932
e 150 963
e 150 965
e 150 968
e 150 972
e 150 988
e 150 996
e 150 997
e 151 256
e 151 258
e 151 259
e 151 279
e 151 283
e 151 321
e 151 329
e 151 333
e 151 335
e 151 346
e 151 361
e 151 367
e 151 381
e 151 391
e 151 407
e 151 411
e 151 430
e 151 452
e 151 455
e 151 482
e 151 483
e 151 512
e 151 550
e 151 557
e 151 558
e 151 561
e 151 568
e 151 572
e 151 579
e 151 601
e 151 613
e 151 652
e 151 665
e 151 680
e 151 695
e 151 703
e 151 719
e 151 724
e 151 728
e 151 729
e 151 737
e 151 743
e 151 744
e 151 754
e 151 764
e 151 774
e 151 821
e 151 830
e 151 836
e 151 842
e 151 852
e 151 867
e 151 886
e 151 899
e 151 907
e 151 924
e 151 926
e 151 931
e 151 946
e 151 948
e 151 961
e 151 975
e 151 982
e 151 984
e 151 988
e 151 991
e 152 260
e 152 267
e 152 269
e 152 278
e 152 280
e 152 303
e 152 304
e 152 313
e 152 332
e 152 334
e 152 336
e 152 346
e 152 347
e 152 352
e 152 369
e 152 375
e 152 396
e 152 400
e 152 402
e 152 411
e 152 426
e 152 434
e 152 435
e 152 455
e 152 463
e 152 507
e 152 510
e 152 520
e 152 522
e 152 530
e 152 538
e 152 540
e 152 547
e 152 550
e 152 552
e 152 566
e 152 586
e 152 587
e 152 591
e 152 602
e 152 604
e 152 608
e 152 615
e 152 619
e 152 621
e 152 674
e 152 680
e 152 681
e 152 690
e 152 703
e 152 711
e 152 712
e 152 735
e 152 737
e 152 738
e 152 749
e 152 754
e 152 757
e 152 770
e 152 774
e 152 782
e 152 799
e 152 818
e 152 828
e 152 849
e 152 863
e 152 867
e 152 869
e 152 876
e 152 885
e 152 911
e 152 912
e 152 921
e 152 926
e 152 928
e 152 929
e 152 934
e 152 956
e 152 969
e 153 259
e 153 268
e 153 272
e 153 277
e 153 286
e 153 290
e 153 298
e 153 301
e 153 302
e 153 306
e 153 323
e 153 336
e 153 346
e 153 350
e 153 357
e 153 376
e 153 378
e 153 388
e 153 408
e 153 414
e 153 434
e 153 457
e 153 465
e 153 470
e 153 474
e 153 507
e 153 509
e 153 523
e 153 535
e 153 624
e 153 646
e 153 648
e 153 683
e 153 687
e 153 688
e 153 693
e 153 694
e 153 706
e 153 709
e 153 715
e 153 727
e 153 729
e 153 733
e 153 737
e 153 741
e 153 774
e 153 775
e 153 791
e 153 797
e 153 811
e 153 817
e 153 827
e 153 836
e 153 844
e 153 861
e 153 868
e 153 870
e 153 876
e 153 894
e 153 897
e 153 918
e 153 922
e 153 934
e 153 938
e 153 939
e 153 943
e 153 945
e 153 966
e 153 987
e 153 991
e 153 995
e 154 254
e 154 269
e 154 270
e 154 275
e 154 277
e 154 286
e 154 291
e 154 295
e 154 321
e 154 324
e 154 331
e 154 332
e 154 338
e 154 348
e 154 354
e 154 370
e 154 377
e 154 379
e 154 383
e 154 398
e 154 399
e 154 421
e 154 433
e 154 439
e 154 444
e 154 464
e 154 485
e 154 503
e 154 511
e 154 517
e 154 519
e 154 547
e 154 560
e 154 563
e 154 591
e 154 592
e 154 617
e 154 631
e 154 654
e 154 666
e 154 701
e 154 720
e 154 723
e 154 741
e 154 775
e 154 780
e 154 787
e 154 788
e 154 792
e 154 793
e 154 805
e 154 806
e 154 826
e 154 827
e 154 832
e 154 840
e 154 855
e 154 856
e 154 859
e 154 864
e 154 873
e 154 877
e 154 878
e 154 879
e 154 881
e 154 891
e 154 907
e 154 913
e 154 926
e 154 930
e 154 933
e 154 937
e 154 938
e 154 986
e 154 996
e 155 262
e 155 273
e 155 275
e 155 287
e 155 291
e 155 302
e 155 312
e 155 315
e 155 328
e 155 337
e 155 343
e 155 344
e 155 360
e 155 370
e 155 392
e 155 393
e 155 394
e 155 398
e 155 402
e 155 408
e 155 413
e 155 416
e 155 435
e 155 444
e 155 445
e 155 475
e 155 495
e 155 501
e 155 507
e 155 513
e 155 521
e 155 523
e 155 528
e 155 565
e 155 577
e 155 583
e 155 584
e 155 585
e 155 587
e 155 590
e 155 607
e 155 612
e 155 621
e 155 640
e 155 644
e 155 647
e 155 683
e 155 699
e 155 701
e 155 723
e 155 738
e 155 744
e 155 746
e 155 747
e 155 752
e 155 754
e 155 768
e 155 769
e 155 770
e 155 783
e 155 794
e 155 809
e 155 815
e 155 861
e 155 870
e 155 873
e 155 894
e 155 908
e 155 911
e 155 914
e 155 916
e 155 918
e 155 920
e 155 923
e 155 930
e 155 943
e 155 950
e 155 966
e 155 976
e 155 983
e 156 259
e 156 273
e 156 280
e 156 281
e 156 283
e 156 342
e 156 358
e 156 360
e 156 361
e 156 370
e 156 379
e 156 388
e 156 390
e 156 420
e 156 427
e 156 433
e 156 447
e 156 494
e 156 498
e 156 501
e 156 502
e 156 520
e 156 528
e 156 530
e 156 534
e 156 539
e 156 540
e 156 568
e 156 570
e 156 587
e 156 600
e 156 621
e 156 631
e 156 644
e 156 651
e 156 655
e 156 656
e 156 668
e 156 686
e 156 694
e 156 696
e 156 705
e 156 735
e 156 753
e 156 763
e 156 771
e 156 776
e 156 786
e 156 789
e 156 791
e 156 798
e 156 799
e 156 811
e 156 827
e 156 829
e 156 830
e 156 844
e 156 848
e 156 854
e 156 858
e 156 865
e 156 867
e 156 870
e 156 872
e 156 875
e 156 876
e 156 893
e 156 894
e 156 910
e 156 917
e 156 922
e 156 923
e 156 938
e 156 955
e 156 978
e 156 979
e 156 980
e 156 988
e 156 995
e 156 996
e 157 254
e 157 256
e 157 266
e 157 268
e 157 269
e 157 282
e 157 315
e 157 360
e 157 368
e 157 370
e 157 373
e 157 395
e 157 397
e 157 399
e 157 412
e 157 413
e 157 446
e 157 465
e 157 470
e 157 479
e 157 487
e 157 496
e 157 501
e 157 503
e 157 510
e 157 517
e 157 518
e 157 526
e 157 532
e 157 535
e 157 541
e 157 563
e 157 569
e 157 572
e 157 574
e 157 583
e 157 586
e 157 590
e 157 612
e 157 631
e 157 638
e 157 639
e 157 643
e 157 665
e 157 667
e 157 677
e 157 680
e 157 693
e 157 697
e 157 703
e 157 711
e 157 719
e 157 722
e 157 740
e 157 747
e 157 751
e 157 770
e 157 781
e 157 788
e 157 799
e 157 802
e 157 815
e 157 824
e 157 834
e 157 862
e 157 866
e 157 881
e 157 896
e 157 911
e 157 927
e 157 940
e 157 947
e 157 951
e 157 969
e 157 979
e 157 984
e 157 997
e 158 259
e 158 272
e 158 294
e 158 306
e 158 318
e 158 321
e 158 325
e 158 331
e 158 337
e 158 343
e 158 351
e 158 360
e 158 366
e 158 371
e 158 380
e 158 383
e 158 427
e 158 432
e 158 434
e 158 436
e 158 458
e 158 459
e 158 479
e 158 482
e 158 490
e 158 492
e 158 501
e 158 503
e 158 541
e 158 551
e 158 563
e 158 567
e 158 579
e 158 581
e 158 598
e 158 605
e 158 606
e 158 614
e 158 627
e 158 628
e 158 638
e 158 644
e 158 647
e 158 654
e 158 655
e 158 676
e 158 680
e 158 702
e 158 703
e 158 737
e 158 776
e 158 777
e 158 812
e 158 813
e 158 819
e 158 824
e 158 835
e 158 862
e 158 865
e 158 880
e 158 885
e 158 886
e 158 903
e 158 905
e 158 908
e 158 916
e 158 922
e 158 926
e 158 934
e 158 968
e 158 986
e 158 987
e 159 263
e 159 270
e 159 277
e 159 294
e 159 312
e 159 320
e 159 331
e 159 352
e 159 358
e 159 368
e 159 378
e 159 380
e 159 405
e 159 419
e 159 429
e 159 457
e 159 469
e 159 470
e 159 477
e 159 480
e 159 486
e 159 533
e 159 535
e 159 554
e 159 558
e 159 559
e 159 570
e 159 585
e 159 593
e 159 595
e 159 600
e 159 603
e 159 615
e 159 618
e 159 624
e 159 625
e 159 631
e 159 684
e 159 691
e 159 694
e 159 695
e 159 696
e 159 697
e 159 707
e 159 723
e 159 741
e 159 746
e 159 757
e 159 766
e 159 777
e 159 779
e 159 797
e 159 800
e 159 802
e 159 804
e 159 808
e 159 818
e 159 819
e 159 826
e 159 829
e 159 842
e 159 865
e 159 869
e 159 914
e 159 921
e 159 937
e 159 947
e 159 949
e 159 952
e 159 962
e 160 251
e 160 263
e 160 271
e 160 279
e 160 291
e 160 299
e 160 307
e 160 313
e 160 320
e 160 331
e 160 334
e 160 339
e 160 348
e 160 352
e 160 373
e 160 392
e 160 402
e 160 406
e 160 417
e 160 424
e 160 425
e 160 426
e 160 433
e 160 436
e 160 479
e 160 482
e 160 484
e 160 485
e 160 498
e 160 503
e 160 505
e 160 512
e 160 538
e 160 539
e 160 540
e 160 544
e 160 553
e 160 555
e 160 562
e 160 565
e 160 566
e 160 567
e 160 572
e 160 593
e 160 599
e 160 667
e 160 677
e 160 698
e 160 699
e 160 708
e 160 713
e 160 741
e 160 754
e 160 764
e 160 771
e 160 772
e 160 779
e 160 795
e 160 796
e 160 800
e 160 817
e 160 822
e 160 825
e 160 826
e 160 840
e 160 870
e 160 889
e 160 908
e 160 914
e 160 916
e 160 919
e 160 950
e 160 952
e 160 986
e 161 253
e 161 254
e 161 257
e 161 322
e 161 329
e 161 330
e 161 334
e 161 336
e 161 338
e 161 362
e 161 370
e 161 374
e 161 377
e 161 380
e 161 390
e 161 398
e 161 403
e 161 414
e 161 423
e 161 425
e 161 431
e 161 434
e 161 438
e 161 439
e 161 452
e 161 474
e 161 478
e 161 500
e 161 505
e 161 506
e 161 514
e 161 520
e 161 523
e 161 546
e 161 548
e 161 550
e 161 552
e 161 553
e 161 558
e 161 595
e 161 601
e 161 607
e 161 608
e 161 612
e 161 634
e 161 659
e 161 687
e 161 700
e 161 706
e 161 711
e 161 744
e 161 747
e 161 784
e 161 804
e 161 805
e 161 809
e 161 826
e 161 838
e 161 857
e 161 858
e 161 875
e 161 877
e 161 887
e 161 891
e 161 892
e 161 894
e 161 906
e 161 909
e 161 915
e 161 920
e 161 922
e 161 932
e 161 935
e 161 953
e 161 984
e 161 989
e 161 998
e 162 252
e 162 261
e 162 271
e 162 274
e 162 289
e 162 295
e 162 299
e 162 301
e 162 306
e 162 312
e 162 327
e 162 340
e 162 341
e 162 348
e 162 364
e 162 365
e 162 372
e 162 374
e 162 376
e 162 383
e 162 394
e 162 397
e 162 401
e 162 408
e 162 434
e 162 437
e 162 451
e 162 452
e 162 459
e 162 474
e 162 484
e 162 499
e 162 527
e 162 536
e 162 542
e 162 576
e 162 582
e 162 598
e 162 601
e 162 607
e 162 610
e 162 625
e 162 630
e 162 632
e 162 637
e 162 643
e 162 653
e 162 656
e 162 659
e 162 673
e 162 688
e 162 722
e 162 786
e 162 790
e 162 813
e 162 825
e 162 826
e 162 839
e 162 842
e 162 853
e 162 854
e 162 866
e 162 909
e 162 927
e 162 928
e 162 934
e 162 950
e 162 951
e 162 971
e 162 973
e 162 993
e 163 290
e 163 306
e 163 309
e 163 314
e 163 337
e 163 339
e 163 344
e 163 345
e 163 359
e 163 368
e 163 378
e 163 383
e 163 388
e 163 393
e 163 394
e 163 401
e 163 422
e 163 424
e 163 439
e 163 440
e 163 442
e 163 443
e 163 444
e 163 445
e 163 449
e 163 456
e 163 481
e 163 494
e 163 505
e 163 513
e 163 519
e 163 522
e 163 533
e 163 534
e 163 543
e 163 545
e 163 554
e 163 562
e 163 564
e 163 583
e 163 591
e 163 595
e 163 598
e 163 608
e 163 615
e 163 632
e 163 633
e 163 644
e 163 657
e 163 662
e 163 665
e 163 669
e 163 681
e 163 685
e 163 693
e 163 714
e 163 718
e 163 727
e 163 729
e 163 774
e 163 798
e 163 800
e 163 816
e 163 832
e 163 840
e 163 860
e 163 870
e 163 876
e 163 883
e 163 896
e 163 899
e 163 947
e 163 948
e 163 954
e 163 971
e 163 976
e 163 978
e 163 980
e 163 984
e 163 992
e 163 995
e 163 999
e 164 251
e 164 260
e 164 275
e 164 277
e 164 278
e 164 296
e 164 308
e 164 314
e 164 315
e 164 324
e 164 326
e 164 360
e 164 368
e 164 375
e 164 399
e 164 404
e 164 407
e 164 417
e 164 420
e 164 427
e 164 430
e 164 469
e 164 473
e 164 481
e 164 498
e 164 505
e 164 518
e 164 528
e 164 533
e 164 541
e 164 550
e 164 554
e 164 563
e 164 613
e 164 617
e 164 623
e 164 630
e 164 645
e 164 647
e 164 651
e 164 656
e 164 661
e 164 669
e 164 679
e 164 686
e 164 701
e 164 711
e 164 716
e 164 721
e 164 723
e 164 747
e 164 757
e 164 767
e 164 776
e 164 777
e 164 806
e 164 815
e 164 829
e 164 832
e 164 846
e 164 853
e 164 859
e 164 870
e 164 874
e 164 880
e 164 888
e 164 922
e 164 927
e 164 933
e 164 944
e 164 949
e 164 954
e 164 980
e 165 257
e 165 258
e 165 262
e 165 266
e 165 282
e 165 287
e 165 289
e 165 296
e 165 301
e 165 310
e 165 328
e 165 340
e 165 349
e 165 355
e 165 368
e 165 372
e 165 377
e 165 379
e 165 384
e 165 415
e 165 417
e 165 421
e 165 425
e 165 427
e 165 430
e 165 443
e 165 452
e 165 454
e 165 462
e 165 472
e 165 473
e 165 484
e 165 485
e 165 486
e 165 492
e 165 496
e 165 502
e 165 510
e 165 552
e 165 557
e 165 560
e 165 577
e 165 603
e 165 611
e 165 618
e 165 635
e 165 641
e 165 648
e 165 655
e 165 663
e 165 678
e 165 687
e 165 693
e 165 695
e 165 697
e 165 699
e 165 702
e 165 705
e 165 707
e 165 716
e 165 723
e 165 730
e 165 747
e 165 777
e 165 788
e 165 795
e 165 797
e 165 805
e 165 806
e 165 808
e 165 818
e 165 821
e 165 827
e 165 830
e 165 836
e 165 859
e 165 865
e 165 877
e 165 880
e 165 882
e 165 892
e 165 901
e 165 902
e 165 905
e 165 907
e 165 909
e 165 912
e 165 969
e 165 988
e 165 996
e 165 999
e 166 253
e 166 262
e 166 279
e 166 287
e 166 289
e 166 302
e 166 308
e 166 309
e 166 326
e 166 332
e 166 341
e 166 356
e 166 368
e 166 373
e 166 377
e 166 378
e 166 380
e 166 409
e 166 418
e 166 424
e 166 435
e 166 439
e 166 446
e 166 448
e 166 453
e 166 469
e 166 497
e 166 499
e 166 501
e 166 508
e 166 517
e 166 529
e 166 577
e 166 600
e 166 609
e 166 620
e 166 635
e 166 648
e 166 653
e 166 672
e 166 685
e 166 689
e 166 715
e 166 727
e 166 733
e 166 754
e 166 789
e 166 793
e 166 797
e 166 810
e 166 815
e 166 821
e 166 824
e 166 826
e 166 847
e 166 861
e 166 868
e 166 872
e 166 877
e 166 879
e 166 886
e 166 889
e 166 905
e 166 948
e 166 960
e 166 976
e 166 977
e 166 983
e 166 993
e 167 265
e 167 274
e 167 276
e 167 278
e 167 282
e 167 286
e 167 302
e 167 328
e 167 330
e 167 336
e 167 355
e 167 362
e 167 370
e 167 385
e 167 391
e 167 400
e 167 413
e 167 426
e 167 432
e 167 435
e 167 438
e 167 472
e 167 475
e 167 483
e 167 488
e 167 491
e 167 509
e 167 512
e 167 516
e 167 528
e 167 538
e 167 539
e 167 621
e 167 622
e 167 638
e 167 668
e 167 714
e 167 732
e 167 755
e 167 766
e 167 769
e 167 778
e 167 780
e 167 787
e 167 790
e 167 792
e 167 798
e 167 807
e 167 813
e 167 816
e 167 839
e 167 845
e 167 850
e 167 851
e 167 855
e 167 858
e 167 870
e 167 886
e 167 890
e 167 892
e 167 893
e 167 906
e 167 910
e 167 918
e 167 922
e 167 950
e 167 952
e 167 966
e 167 976
e 167 980
e 168 259
e 168 281
e 168 283
e 168 301
e 168 323
e 168 348
e 168 349
e 168 356
e 168 368
e 168 410
e 168 414
e 168 431
e 168 438
e 168 444
e 168 447
e 168 453
e 168 467
e 168 493
e 168 508
e 168 514
e 168 521
e 168 524
e 168 548
e 168 557
e 168 571
e 168 578
e 168 587
e 168 602
e 168 617
e 168 634
e 168 641
e 168 654
e 168 672
e 168 700
e 168 715
e 168 727
e 168 761
e 168 764
e 168 768
e 168 770
e 168 772
e 168 782
e 168 783
e 168 792
e 168 796
e 168 803
e 168 812
e 168 827
e 168 829
e 168 838
e 168 861
e 168 864
e 168 868
e 168 880
e 168 897
e 168 905
e 168 925
e 168 942
e 168 979
e 168 987
e 168 990
e 168 997
e 169 270
e 169 287
e 169 290
e 169 304
e 169 311
e 169 355
e 169 366
e 169 415
e 169 421
e 169 431
e 169 445
e 169 450
e 169 457
e 169 461
e 169 468
e 169 470
e 169 471
e 169 490
e 169 491
e 169 497
e 169 527
e 169 528
e 169 530
e 169 532
e 169 537
e 169 577
e 169 591
e 169 592
e 169 594
e 169 604
e 169 607
e 169 618
e 169 632
e 169 636
e 169 648
e 169 651
e 169 653
e 169 665
e 169 675
e 169 683
e 169 696
e 169 699
e 169 706
e 169 721
e 169 726
e 169 740
e 169 759
e 169 766
e 169 776
e 169 779
e 169 783
e 169 786
e 169 797
e 169 821
e 169 837
e 169 842
e 169 868
e 169 884
e 169 896
e 169 915
e 169 920
e 169 929
e 169 940
e 169 960
e 169 970
e 169 971
e 169 979
e 169 980
e 169 985
e 169 993
e 169 998
e 170 253
e 170 255
e 170 262
e 170 270
e 170 288
e 170 315
e 170 317
e 170 323
e 170 337
e 170 377
e 170 388
e 170 395
e 170 409
e 170 461
e 170 480
e 170 488
e 170 517
e 170 520
e 170 544
e 170 565
e 170 568
e 170 577
e 170 582
e 170 585
e 170 592
e 170 615
e 170 625
e 170 629
e 170 676
e 170 685
e 170 701
e 170 703
e 170 708
e 170 720
e 170 726
e 170 728
e 170 729
e 170 745
e 170 755
e 170 763
e 170 766
e 170 768
e 170 770
e 170 787
e 170 813
e 170 835
e 170 845
e 170 862
e 170 864
e 170 869
e 170 871
e 170 873
e 170 880
e 170 899
e 170 931
e 170 935
e 170 944
e 170 953
e 170 957
e 170 982
e 170 988
e 170 991
e 170 992
e 171 256
e 171 289
e 171 299
e 171 304
e 171 308
e 171 313
e 171 314
e 171 321
e 171 328
e 171 338
e 171 343
e 171 365
e 171 368
e 171 371
e 171 375
e 171 378
e 171 384
e 171 388
e 171 404
e 171 408
e 171 412
e 171 416
e 171 418
e 171 419
e 171 424
e 171 427
e 171 431
e 171 434
e 171 440
e 171 441
e 171 442
e 171 446
e 171 454
e 171 460
e 171 462
e 171 477
e 171 479
e 171 535
e 171 549
e 171 556
e 171 558
e 171 574
e 171 580
e 171 583
e 171 603
e 171 619
e 171 621
e 171 625
e 171 636
e 171 640
e 171 642
e 171 649
e 171 650
e 171 655
e 171 661
e 171 671
e 171 701
e 171 707
e 171 715
e 171 728
e 171 731
e 171 741
e 171 746
e 171 755
e 171 756
e 171 761
e 171 764
e 171 771
e 171 782
e 171 783
e 171 799
e 171 803
e 171 822
e 171 835
e 171 847
e 171 848
e 171 850
e 171 851
e 171 860
e 171 861
e 171 877
e 171 878
e 171 885
e 171 887
e 171 898
e 171 910
e 171 914
e 171 915
e 171 917
e 171 923
e 171 935
e 171 937
e 171 981
e 171 991
e 171 993
e 171 997
e 171 999
e 172 264
e 172 275
e 172 307
e 172 309
e 172 312
e 172 314
e 172 320
e 172 333
e 172 335
e 172 350
e 172 363
e 172 368
e 172 381
e 172 413
e 172 417
e 172 425
e 172 429
e 172 436
e 172 448
e 172 452
e 172 468
e 172 474
e 172 477
e 172 497
e 172 499
e 172 510
e 172 521
e 172 522
e 172 529
e 172 531
e 172 536
e 172 550
e 172 555
e 172 564
e 172 565
e 172 570
e 172 583
e 172 592
e 172 601
e 172 622
e 172 627
e 172 632
e 172 636
e 172 655
e 172 664
e 172 682
e 172 688
e 172 707
e 172 718
e 172 736
e 172 746
e 172 755
e 172 775
e 172 777
e 172 839
e 172 849
e 172 861
e 172 863
e 172 866
e 172 871
e 172 886
e 172 889
e 172 890
e 172 893
e 172 898
e 172 903
e 172 920
e 172 921
e 172 927
e 172 934
e 172 961
e 172 963
e 172 971
e 172 972
e 172 975
e 172 983
e 172 986
e 173 275
e 173 277
e 173 279
e 173 280
e 173 283
e 173 291
e 173 295
e 173 306
e 173 308
e 173 326
e 173 328
e 173 346
e 173 350
e 173 354
e 173 373
e 173 380
e 173 388
e 173 396
e 173 397
e 173 403
e 173 408
e 173 411
e 173 419
e 173 459
e 173 465
e 173 468
e 173 469
e 173 496
e 173 531
e 173 533
e 173 550
e 173 555
e 173 562
e 173 571
e 173 572
e 173 575
e 173 579
e 173 593
e 173 595
e 173 606
e 173 612
e 173 623
e 173 641
e 173 647
e 173 655
e 173 663
e 173 690
e 173 715
e 173 726
e 173 736
e 173 743
e 173 747
e 173 749
e 173 755
e 173 764
e 173 774
e 173 812
e 173 827
e 173 832
e 173 839
e 173 843
e 173 859
e 173 871
e 173 884
e 173 886
e 173 887
e 173 889
e 173 896
e 173 914
e 173 920
e 173 923
e 173 924
e 173 929
e 173 973
e 173 977
e 173 978
e 174 269
e 174 279
e 174 302
e 174 307
e 174 313
e 174 333
e 174 349
e 174 374
e 174 384
e 174 386
e 174 390
e 174 393
e 174 401
e 174 405
e 174 412
e 174 427
e 174 449
e 174 455
e 174 461
e 174 463
e 174 466
e 174 477
e 174 481
e 174 486
e 174 488
e 174 490
e 174 499
e 174 509
e 174 510
e 174 513
e 174 516
e 174 517
e 174 536
e 174 542
e 174 557
e 174 566
e 174 568
e 174 575
e 174 576
e 174 577
e 174 604
e 174 611
e 174 612
e 174 615
e 174 661
e 174 671
e 174 673
e 174 686
e 174 697
e 174 710
e 174 718
e 174 726
e 174 729
e 174 730
e 174 736
e 174 743
e 174 771
e 174 790
e 174 800
e 174 809
e 174 813
e 174 814
e 174 856
e 174 857
e 174 859
e 174 891
e 174 900
e 174 903
e 174 904
e 174 919
e 174 929
e 174 936
e 174 943
e 174 947
e 174 953
e 174 965
e 174 971
e 174 979
e 174 994
e 174 995
e 175 255
e 175 271
e 175 292
e 175 301
e 175 314
e 175 316
e 175 320
e 175 339
e 175 350
e 175 360
e 175 391
e 175 397
e 175 445
e 175 458
e 175 471
e 175 472
e 175 473
e 175 476
e 175 482
e 175 497
e 175 502
e 175 522
e 175 523
e 175 532
e 175 540
e 175 563
e 175 576
e 175 582
e 175 601
e 175 607
e 175 613
e 175 618
e 175 625
e 175 639
e 175 667
e 175 709
e 175 725
e 175 727
e 175 736
e 175 750
e 175 754
e 175 772
e 175 779
e 175 806
e 175 807
e 175 830
e 175 844
e 175 850
e 175 870
e 175 876
e 175 880
e 175 917
e 175 934
e 175 943
e 175 948
e 175 959
e 175 973
e 175 988
e 176 260
e 176 263
e 176 288
e 176 291
e 176 294
e 176 302
e 176 326
e 176 328
e 176 337
e 176 350
e 176 363
e 176 387
e 176 403
e 176 411
e 176 430
e 176 432
e 176 448
e 176 460
e 176 467
e 176 476
e 176 512
e 176 532
e 176 537
e 176 573
e 176 580
e 176 587
e 176 597
e 176 604
e 176 607
e 176 608
e 176 612
e 176 621
e 176 629
e 176 631
e 176 632
e 176 635
e 176 638
e 176 647
e 176 649
e 176 656
e 176 668
e 176 679
e 176 684
e 176 702
e 176 703
e 176 707
e 176 710
e 176 712
e 176 714
e 176 732
e 176 733
e 176 750
e 176 762
e 176 771
e 176 780
e 176 800
e 176 807
e 176 809
e 176 812
e 176 814
e 176 817
e 176 823
e 176 851
e 176 853
e 176 857
e 176 862
e 176 866
e 176 879
e 176 899
e 176 906
e 176 917
e 176 922
e 176 935
e 176 944
e 176 961
e 176 962
e 176 967
e 176 969
e 176 970
e 177 274
e 177 288
e 177 296
e 177 312
e 177 336
e 177 351
e 177 357
e 177 386
e 177 396
e 177 398
e 177 407
e 177 419
e 177 427
e 177 451
e 177 467
e 177 491
e 177 495
e 177 496
e 177 507
e 177 516
e 177 524
e 177 533
e 177 542
e 177 555
e 177 558
e 177 568
e 177 581
e 177 594
e 177 605
e 177 616
e 177 629
e 177 630
e 177 648
e 177 649
e 177 670
e 177 675
e 177 677
e 177 699
e 177 704
e 177 718
e 177 727
e 177 731
e 177 736
e 177 739
e 177 742
e 177 744
e 177 745
e 177 755
e 177 758
e 177 770
e 177 773
e 177 776
e 177 779
e 177 783
e 177 786
e 177 789
e 177 795
e 177 797
e 177 807
e 177 808
e 177 811
e 177 812
e 177 823
e 177 830
e 177 834
e 177 836
e 177 843
e 177 844
e 177 847
e 177 849
e 177 854
e 177 865
e 177 870
e 177 872
e 177 874
e 177 919
e 177 930
e 177 936
e 177 938
e 177 965
e 177 971
e 177 981
e 177 982
e 177 983
e 177 988
e 177 989
e 178 262
e 178 266
e 178 268
e 178 269
e 178 274
e 178 297
e 178 301
e 178 316
e 178 319
e 178 323
e 178 324
e 178 328
e 178 344
e 178 345
e 178 346
e 178 347
e 178 373
e 178 390
e 178 398
e 178 400
e 178 403
e 178 404
e 178 405
e 178 421
e 178 424
e 178 445
e 178 454
e 178 467
e 178 484
e 178 486
e 178 495
e 178 496
e 178 503
e 178 512
e 178 518
e 178 526
e 178 531
e 178 537
e 178 542
e 178 549
e 178 557
e 178 563
e 178 564
e 178 570
e 178 618
e 178 620
e 178 621
e 178 623
e 178 629
e 178 633
e 178 634
e 178 635
e 178 663
e 178 665
e 178 670
e 178 692
e 178 705
e 178 707
e 178 723
e 178 746
e 178 750
e 178 762
e 178 765
e 178 798
e 178 806
e 178 808
e 178 814
e 178 817
e 178 829
e 178 845
e 178 848
e 178 851
e 178 855
e 178 863
e 178 865
e 178 867
e 178 873
e 178 875
e 178 878
e 178 886
e 178 893
e 178 895
e 178 907
e 178 916
e 178 928
e 178 939
e 178 968
e 178 976
e 178 977
e 178 985
e 178 989
e 178 994
e 179 256
e 179 260
e 179 263
e 179 293
e 179 302
e 179 309
e 179 314
e 179 315
e 179 329
e 179 341
e 179 348
e 179 354
e 179 355
e 179 358
e 179 367
e 179 368
e 179 376
e 179 382
e 179 384
e 179 404
e 179 409
e 179 414
e 179 418
e 179 430
e 179 439
e 179 455
e 179 456
e 179 460
e 179 462
e 179 468
e 179 477
e 179 486
e 179 489
e 179 491
e 179 499
e 179 507
e 179 537
e 179 544
e 179 550
e 179 560
e 179 585
e 179 589
e 179 599
e 179 637
e 179 644
e 179 649
e 179 650
e 179 656
e 179 671
e 179 675
e 179 685
e 179 707
e 179 711
e 179 715
e 179 718
e 179 719
e 179 742
e 179 748
e 179 750
e 179 752
e 179 765
e 179 784
e 179 792
e 179 811
e 179 823
e 179 829
e 179 847
e 179 859
e 179 861
e 179 870
e 179 874
e 179 899
e 179 901
e 179 912
e 179 923
e 179 937
e 179 950
e 179 979
e 180 254
e 180 269
e 180 270
e 180 277
e 180 287
e 180 305
e 180 319
e 180 323
e 180 331
e 180 332
e 180 335
e 180 342
e 180 383
e 180 411
e 180 412
e 180 417
e 180 428
e 180 442
e 180 471
e 180 486
e 180 487
e 180 497
e 180 509
e 180 510
e 180 512
e 180 519
e 180 524
e 180 526
e 180 554
e 180 577
e 180 585
e 180 604
e 180 609
e 180 611
e 180 615
e 180 633
e 180 634
e 180 639
e 180 648
e 180 650
e 180 651
e 180 659
e 180 663
e 180 664
e 180 676
e 180 677
e 180 702
e 180 704
e 180 722
e 180 725
e 180 749
e 180 754
e 180 785
e 180 791
e 180 806
e 180 819
e 180 826
e 180 828
e 180 835
e 180 836
e 180 844
e 180 845
e 180 854
e 180 855
e 180 866
e 180 873
e 180 874
e 180 894
e 180 895
e 180 904
e 180 966
e 180 967
e 180 982
e 180 983
e 180 987
e 180 992
e 180 994
e 181 251
e 181 271
e 181 283
e 181 290
e 181 297
e 181 320
e 181 333
e 181 334
e 181 341
e 181 342
e 181 355
e 181 357
e 181 375
e 181 380
e 181 383
e 181 384
e 181 396
e 181 397
e 181 439
e 181 447
e 181 455
e 181 468
e 181 472
e 181 477
e 181 485
e 181 505
e 181 526
e 181 529
e 181 546
e 181 579
e 181 596
e 181 618
e 181 623
e 181 625
e 181 629
e 181 635
e 181 640
e 181 678
e 181 691
e 181 693
e 181 697
e 181 713
e 181 721
e 181 728
e 181 741
e 181 746
e 181 761
e 181 777
e 181 783
e 181 786
e 181 787
e 181 808
e 181 814
e 181 817
e 181 820
e 181 822
e 181 825
e 181 831
e 181 854
e 181 862
e 181 864
e 181 870
e 181 878
e 181 879
e 181 888
e 181 902
e 181 909
e 181 934
e 181 937
e 181 973
e 181 981
e 181 985
e 181 997
e 182 255
e 182 257
e 182 269
e 182 270
e 182 310
e 182 315
e 182 317
e 182 334
e 182 335
e 182 338
e 182 343
e 182 350
e 182 365
e 182 380
e 182 382
e 182 396
e 182 399
e 182 403
e 182 408
e 182 431
e 182 432
e 182 444
e 182 455
e 182 462
e 182 478
e 182 494
e 182 505
e 182 522
e 182 525
e 182 535
e 182 536
e 182 553
e 182 558
e 182 560
e 182 565
e 182 568
e 182 576
e 182 589
e 182 590
e 182 614
e 182 618
e 182 622
e 182 623
e 182 624
e 182 626
e 182 636
e 182 693
e 182 703
e 182 715
e 182 722
e 182 745
e 182 755
e 182 760
e 182 762
e 182 767
e 182 768
e 182 779
e 182 780
e 182 785
e 182 790
e 182 793
e 182 799
e 182 812
e 182 820
e 182 836
e 182 845
e 182 847
e 182 851
e 182 852
e 182 854
e 182 857
e 182 860
e 182 866
e 182 867
e 182 868
e 182 885
e 182 887
e 182 891
e 182 911
e 182 923
e 182 930
e 182 951
e 182 958
e 182 967
e 182 978
e 182 988
e 182 992
e 182 996
e 182 999
e 183 263
e 183 278
e 183 284
e 183 296
e 183 308
e 183 318
e 183 321
e 183 338
e 183 354
e 183 358
e 183 359
e 183 362
e 183 387
e 183 388
e 183 397
e 183 405
e 183 413
e 183 420
e 183 425
e 183 434
e 183 451
e 183 452
e 183 453
e 183 468
e 183 470
e 183 475
e 183 482
e 183 486
e 183 497
e 183 506
e 183 513
e 183 516
e 183 520
e 183 522
e 183 528
e 183 551
e 183 564
e 183 592
e 183 596
e 183 600
e 183 616
e 183 628
e 183 642
e 183 645
e 183 646
e 183 676
e 183 700
e 183 706
e 183 707
e 183 729
e 183 734
e 183 743
e 183 756
e 183 771
e 183 773
e 183 777
e 183 778
e 183 781
e 183 794
e 183 802
e 183 808
e 183 812
e 183 813
e 183 825
e 183 826
e 183 850
e 183 865
e 183 868
e 183 869
e 183 878
e 183 900
e 183 903
e 183 920
e 183 930
e 183 934
e 183 936
e 183 943
e 183 945
e 183 952
e 183 959
e 183 961
e 183 965
e 183 989
e 183 994
e 183 999
e 184 251
e 184 262
e 184 270
e 184 273
e 184 274
e 184 306
e 184 315
e 184 318
e 184 323
e 184 324
e 184 331
e 184 338
e 184 343
e 184 344
e 184 346
e 184 348
e 184 358
e 184 382
e 184 387
e 184 391
e 184 400
e 184 405
e 184 412
e 184 470
e 184 493
e 184 497
e 184 512
e 184 516
e 184 526
e 184 547
e 184 550
e 184 571
e 184 591
e 184 595
e 184 597
e 184 624
e 184 636
e 184 656
e 184 663
e 184 669
e 184 674
e 184 678
e 184 691
e 184 712
e 184 723
e 184 732
e 184 740
e 184 744
e 184 746
e 184 766
e 184 808
e 184 815
e 184 816
e 184 820
e 184 848
e 184 852
e 184 864
e 184 868
e 184 878
e 184 894
e 184 900
e 184 916
e 184 925
e 184 928
e 184 941
e 184 942
e 184 948
e 184 953
e 184 967
e 184 993
e 185 255
e 185 261
e 185 263
e 185 287
e 185 301
e 185 327
e 185 346
e 185 357
e 185 369
e 185 376
e 185 383
e 185 398
e 185 399
e 185 404
e 185 415
e 185 427
e 185 446
e 185 457
e 185 473
e 185 483
e 185 490
e 185 496
e 185 499
e 185 505
e 185 539
e 185 550
e 185 551
e 185 570
e 185 571
e 185 576
e 185 577
e 185 580
e 185 586
e 185 587
e 185 602
e 185 604
e 185 622
e 185 626
e 185 629
e 185 637
e 185 641
e 185 660
e 185 661
e 185 669
e 185 671
e 185 697
e 185 705
e 185 706
e 185 708
e 185 715
e 185 740
e 185 749
e 185 764
e 185 774
e 185 776
e 185 811
e 185 815
e 185 818
e 185 861
e 185 877
e 185 892
e 185 898
e 185 931
e 185 933
e 185 981
e 185 994
e 185 995
e 186 262
e 186 266
e 186 267
e 186 273
e 186 289
e 186 302
e 186 307
e 186 309
e 186 314
e 186 315
e 186 342
e 186 354
e 186 363
e 186 411
e 186 413
e 186 417
e 186 421
e 186 429
e 186 431
e 186 464
e 186 486
e 186 490
e 186 491
e 186 494
e 186 502
e 186 505
e 186 511
e 186 521
e 186 524
e 186 549
e 186 564
e 186 577
e 186 580
e 186 587
e 186 594
e 186 603
e 186 608
e 186 615
e 186 633
e 186 668
e 186 675
e 186 696
e 186 705
e 186 707
e 186 719
e 186 738
e 186 739
e 186 763
e 186 778
e 186 779
e 186 794
e 186 805
e 186 815
e 186 819
e 186 824
e 186 837
e 186 840
e 186 844
e 186 883
e 186 907
e 186 910
e 186 913
e 186 914
e 186 919
e 186 964
e 187 269
e 187 288
e 187 289
e 187 290
e 187 325
e 187 327
e 187 349
e 187 350
e 187 351
e 187 354
e 187 371
e 187 378
e 187 383
e 187 385
e 187 397
e 187 404
e 187 417
e 187 420
e 187 421
e 187 428
e 187 451
e 187 459
e 187 460
e 187 477
e 187 495
e 187 519
e 187 530
e 187 534
e 187 556
e 187 560
e 187 565
e 187 569
e 187 590
e 187 603
e 187 624
e 187 630
e 187 638
e 187 668
e 187 681
e 187 688
e 187 700
e 187 714
e 187 715
e 187 717
e 187 718
e 187 721
e 187 733
e 187 740
e 187 761
e 187 764
e 187 795
e 187 814
e 187 817
e 187 830
e 187 831
e 187 838
e 187 854
e 187 873
e 187 897
e 187 911
e 187 917
e 187 927
e 187 932
e 187 936
e 187 940
e 187 955
e 187 957
e 187 967
e 187 968
e 187 993
e 188 256
e 188 268
e 188 285
e 188 310
e 188 313
e 188 318
e 188 337
e 188 340
e 188 367
e 188 368
e 188 370
e 188 401
e 188 432
e 188 448
e 188 449
e 188 466
e 188 472
e 188 474
e 188 479
e 188 482
e 188 493
e 188 501
e 188 503
e 188 507
e 188 510
e 188 512
e 188 514
e 188 524
e 188 533
e 188 535
e 188 538
e 188 542
e 188 547
e 188 567
e 188 568
e 188 582
e 188 610
e 188 618
e 188 626
e 188 641
e 188 645
e 188 654
e 188 664
e 188 669
e 188 694
e 188 706
e 188 730
e 188 744
e 188 748
e 188 754
e 188 764
e 188 768
e 188 770
e 188 781
e 188 787
e 188 795
e 188 804
e 188 814
e 188 816
e 188 825
e 188 855
e 188 864
e 188 875
e 188 877
e 188 880
e 188 890
e 188 892
e 188 900
e 188 909
e 188 914
e 188 918
e 188 925
e 188 936
e 188 954
e 188 958
e 188 979
e 188 995
e 189 252
e 189 284
e 189 327
e 189 330
e 189 345
e 189 369
e 189 370
e 189 371
e 189 383
e 189 393
e 189 401
e 189 408
e 189 412
e 189 417
e 189 421
e 189 430
e 189 431
e 189 435
e 189 477
e 189 506
e 189 515
e 189 516
e 189 519
e 189 548
e 189 550
e 189 560
e 189 562
e 189 563
e 189 569
e 189 593
e 189 599
e 189 600
e 189 613
e 189 641
e 189 648
e 189 662
e 189 663
e 189 701
e 189 702
e 189 721
e 189 723
e 189 729
e 189 755
e 189 756
e 189 759
e 189 768
e 189 786
e 189 793
e 189 803
e 189 811
e 189 812
e 189 829
e 189 834
e 189 835
e 189 836
e 189 837
e 189 838
e 189 850
e 189 857
e 189 858
e 189 859
e 189 870
e 189 872
e 189 875
e 189 882
e 189 883
e 189 888
e 189 893
e 189 895
e 189 898
e 189 903
e 189 934
e 189 936
e 189 941
e 189 943
e 189 954
e 189 966
e 189 968
e 189 971
e 189 979
e 189 999
e 190 265
e 190 273
e 190 280
e 190 285
e 190 300
e 190 311
e 190 317
e 190 323
e 190 329
e 190 330
e 190 343
e 190 359
e 190 368
e 190 376
e 190 378
e 190 380
e 190 381
e 190 382
e 190 404
e 190 422
e 190 424
e 190 433
e 190 439
e 190 446
e 190 451
e 190 465
e 190 479
e 190 483
e 190 512
e 190 520
e 190 522
e 190 523
e 190 529
e 190 533
e 190 547
e 190 557
e 190 562
e 190 570
e 190 577
e 190 581
e 190 585
e 190 596
e 190 599
e 190 613
e 190 616
e 190 630
e 190 633
e 190 636
e 190 654
e 190 669
e 190 681
e 190 684
e 190 690
e 190 728
e 190 731
e 190 736
e 190 794
e 190 802
e 190 808
e 190 813
e 190 815
e 190 833
e 190 841
e 190 847
e 190 851
e 190 865
e 190 868
e 190 884
e 190 891
e 190 897
e 190 898
e 190 915
e 190 923
e 190 948
e 190 951
e 190 957
e 190 973
e 190 981
e 190 983
e 190 989
e 191 258
e 191 259
e 191 292
e 191 316
e 191 342
e 191 343
e 191 348
e 191 353
e 191 379
e 191 382
e 191 394
e 191 407
e 191 410
e 191 417
e 191 438
e 191 462
e 191 464
e 191 469
e 191 488
e 191 498
e 191 508
e 191 513
e 191 514
e 191 533
e 191 537
e 191 565
e 191 601
e 191 608
e 191 622
e 191 624
e 191 627
e 191 641
e 191 651
e 191 658
e 191 662
e 191 674
e 191 681
e 191 691
e 191 707
e 191 711
e 191 714
e 191 721
e 191 727
e 191 732
e 191 734
e 191 753
e 191 754
e 191 759
e 191 760
e 191 772
e 191 780
e 191 791
e 191 794
e 191 798
e 191 816
e 191 832
e 191 880
e 191 883
e 191 887
e 191 891
e 191 898
e 191 900
e 191 901
e 191 906
e 191 908
e 191 926
e 191 931
e 191 939
e 191 944
e 191 945
e 191 973
e 191 987
e 191 996
e 192 252
e 192 257
e 192 281
e 192 290
e 192 292
e 192 294
e 192 302
e 192 322
e 192 333
e 192 347
e 192 352
e 192 359
e 192 365
e 192 366
e 192 372
e 192 392
e 192 400
e 192 406
e 192 425
e 192 430
e 192 440
e 192 449
e 192 455
e 192 462
e 192 471
e 192 473
e 192 478
e 192 480
e 192 485
e 192 487
e 192 490
e 192 501
e 192 521
e 192 550
e 192 552
e 192 587
e 192 602
e 192 612
e 192 634
e 192 643
e 192 645
e 192 648
e 192 649
e 192 655
e 192 657
e 192 663
e 192 669
e 192 671
e 192 673
e 192 689
e 192 696
e 192 707
e 192 729
e 192 735
e 192 737
e 192 740
e 192 756
e 192 764
e 192 776
e 192 781
e 192 797
e 192 812
e 192 827
e 192 831
e 192 846
e 192 852
e 192 859
e 192 860
e 192 867
e 192 876
e 192 885
e 192 890
e 192 896
e 192 902
e 192 903
e 192 919
e 192 938
e 192 942
e 192 951
e 192 966
e 192 980
e 193 255
e 193 262
e 193 264
e 193 273
e 193 277
e 193 287
e 193 298
e 193 305
e 193 316
e 193 347
e 193 363
e 193 369
e 193 370
e 193 375
e 193 385
e 193 389
e 193 395
e 193 400
e 193 404
e 193 410
e 193 413
e 193 429
e 193 458
e 193 468
e 193 477
e 193 490
e 193 499
e 193 507
e 193 509
e 193 521
e 193 527
e 193 552
e 193 553
e 193 578
e 193 583
e 193 586
e 193 599
e 193 614
e 193 631
e 193 671
e 193 686
e 193 687
e 193 689
e 193 692
e 193 710
e 193 715
e 193 723
e 193 750
e 193 763
e 193 765
e 193 775
e 193 780
e 193 787
e 193 790
e 193 809
e 193 812
e 193 817
e 193 819
e 193 837
e 193 838
e 193 864
e 193 874
e 193 891
e 193 892
e 193 923
e 193 929
e 193 933
e 193 942
e 193 961
e 193 970
e 193 981
e 193 986
e 193 992
e 193 997
e 194 253
e 194 257
e 194 263
e 194 265
e 194 266
e 194 268
e 194 269
e 194 291
e 194 297
e 194 302
e 194 304
e 194 315
e 194 330
e 194 331
e 194 335
e 194 354
e 194 361
e 194 374
e 194 382
e 194 386
e 194 388
e 194 402
e 194 411
e 194 432
e 194 451
e 194 455
e 194 457
e 194 471
e 194 478
e 194 494
e 194 512
e 194 520
e 194 535
e 194 537
e 194 544
e 194 550
e 194 554
e 194 557
e 194 579
e 194 582
e 194 587
e 194 592
e 194 603
e 194 606
e 194 615
e 194 616
e 194 617
e 194 622
e 194 631
e 194 652
e 194 660
e 194 667
e 194 690
e 194 694
e 194 702
e 194 716
e 194 717
e 194 728
e 194 732
e 194 737
e 194 740
e 194 745
e 194 751
e 194 756
e 194 770
e 194 772
e 194 781
e 194 794
e 194 811
e 194 817
e 194 834
e 194 844
e 194 850
e 194 857
e 194 869
e 194 872
e 194 880
e 194 902
e 194 911
e 194 912
e 194 932
e 194 934
e 194 944
e 194 945
e 194 947
e 194 963
e 194 988
e 194 994
e 195 251
e 195 262
e 195 266
e 195 275
e 195 306
e 195 330
e 195 333
e 195 334
e 195 343
e 195 347
e 195 360
e 195 361
e 195 384
e 195 387
e 195 390
e 195 412
e 195 413
e 195 415
e 195 435
e 195 440
e 195 482
e 195 508
e 195 523
e 195 524
e 195 525
e 195 538
e 195 563
e 195 566
e 195 568
e 195 569
e 195 607
e 195 612
e 195 629
e 195 645
e 195 669
e 195 679
e 195 689
e 195 692
e 195 728
e 195 742
e 195 748
e 195 752
e 195 759
e 195 780
e 195 811
e 195 812
e 195 822
e 195 834
e 195 858
e 195 874
e 195 893
e 195 898
e 195 904
e 195 914
e 195 941
e 195 949
e 196 281
e 196 285
e 196 297
e 196 332
e 196 336
e 196 341
e 196 345
e 196 388
e 196 390
e 196 396
e 196 399
e 196 402
e 196 406
e 196 411
e 196 415
e 196 416
e 196 419
e 196 443
e 196 448
e 196 449
e 196 461
e 196 465
e 196 471
e 196 473
e 196 476
e 196 494
e 196 545
e 196 571
e 196 573
e 196 587
e 196 594
e 196 607
e 196 622
e 196 626
e 196 630
e 196 659
e 196 678
e 196 688
e 196 712
e 196 713
e 196 733
e 196 751
e 196 757
e 196 765
e 196 766
e 196 804
e 196 829
e 196 842
e 196 874
e 196 881
e 196 893
e 196 920
e 196 921
e 196 950
e 196 953
e 196 955
e 196 961
e 196 964
e 196 974
e 196 996
e 197 264
e 197 290
e 197 312
e 197 313
e 197 333
e 197 372
e 197 380
e 197 384
e 197 402
e 197 407
e 197 415
e 197 439
e 197 443
e 197 478
e 197 482
e 197 487
e 197 499
e 197 501
e 197 508
e 197 527
e 197 555
e 197 573
e 197 575
e 197 584
e 197 588
e 197 598
e 197 602
e 197 609
e 197 622
e 197 634
e 197 669
e 197 672
e 197 681
e 197 688
e 197 693
e 197 704
e 197 709
e 197 724
e 197 725
e 197 734
e 197 740
e 197 744
e 197 749
e 197 753
e 197 754
e 197 765
e 197 769
e 197 781
e 197 798
e 197 809
e 197 819
e 197 823
e 197 874
e 197 880
e 197 883
e 197 896
e 197 902
e 197 906
e 197 908
e 197 930
e 197 932
e 197 945
e 197 977
e 197 979
e 197 980
e 197 985
e 197 992
e 197 993
e 197 995
e 197 996
e 198 271
e 198 276
e 198 305
e 198 317
e 198 323
e 198 333
e 198 348
e 198 356
e 198 358
e 198 379
e 198 400
e 198 402
e 198 406
e 198 415
e 198 427
e 198 459
e 198 461
e 198 480
e 198 489
e 198 526
e 198 535
e 198 536
e 198 538
e 198 540
e 198 569
e 198 588
e 198 593
e 198 597
e 198 611
e 198 615
e 198 618
e 198 626
e 198 646
e 198 652
e 198 654
e 198 718
e 198 719
e 198 730
e 198 734
e 198 739
e 198 765
e 198 772
e 198 775
e 198 777
e 198 779
e 198 806
e 198 825
e 198 844
e 198 845
e 198 861
e 198 871
e 198 872
e 198 888
e 198 899
e 198 911
e 198 927
e 198 929
e 198 947
e 198 949
e 198 954
e 198 984
e 198 992
e 199 261
e 199 284
e 199 285
e 199 294
e 199 296
e 199 304
e 199 312
e 199 331
e 199 336
e 199 340
e 199 358
e 199 364
e 199 365
e 199 368
e 199 381
e 199 382
e 199 383
e 199 393
e 199 410
e 199 413
e 199 420
e 199 430
e 199 434
e 199 447
e 199 464
e 199 468
e 199 477
e 199 485
e 199 486
e 199 489
e 199 515
e 199 516
e 199 523
e 199 526
e 199 531
e 199 538
e 199 550
e 199 568
e 199 585
e 199 614
e 199 626
e 199 628
e 199 653
e 199 666
e 199 667
e 199 671
e 199 676
e 199 681
e 199 690
e 199 691
e 199 694
e 199 709
e 199 719
e 199 732
e 199 752
e 199 759
e 199 764
e 199 778
e 199 784
e 199 796
e 199 800
e 199 801
e 199 812
e 199 816
e 199 823
e 199 826
e 199 832
e 199 847
e 199 858
e 199 881
e 199 883
e 199 887
e 199 888
e 199 894
e 199 916
e 199 925
e 199 928
e 199 941
e 199 956
e 199 962
e 200 252
e 200 255
e 200 269
e 200 272
e 200 277
e 200 314
e 200 322
e 200 334
e 200 365
e 200 374
e 200 378
e 200 393
e 200 405
e 200 410
e 200 414
e 200 425
e 200 449
e 200 454
e 200 457
e 200 459
e 200 486
e 200 488
e 200 495
e 200 503
e 200 519
e 200 521
e 200 527
e 200 546
e 200 579
e 200 589
e 200 590
e 200 594
e 200 625
e 200 630
e 200 640
e 200 652
e 200 655
e 200 666
e 200 673
e 200 677
e 200 689
e 200 696
e 200 700
e 200 701
e 200 710
e 200 711
e 200 733
e 200 734
e 200 741
e 200 757
e 200 762
e 200 765
e 200 777
e 200 784
e 200 790
e 200 791
e 200 799
e 200 813
e 200 827
e 200 856
e 200 865
e 200 889
e 200 904
e 200 906
e 200 910
e 200 912
e 200 924
e 200 931
e 200 954
e 200 956
e 200 963
e 200 964
e 200 971
e 200 984
e 200 990
e 200 996
e 201 260
e 201 262
e 201 273
e 201 295
e 201 331
e 201 337
e 201 343
e 201 347
e 201 368
e 201 371
e 201 377
e 201 378
e 201 381
e 201 393
e 201 406
e 201 409
e 201 423
e 201 428
e 201 464
e 201 492
e 201 509
e 201 518
e 201 535
e 201 543
e 201 547
e 201 554
e 201 556
e 201 559
e 201 569
e 201 576
e 201 579
e 201 582
e 201 598
e 201 612
e 201 623
e 201 649
e 201 650
e 201 657
e 201 679
e 201 698
e 201 701
e 201 720
e 201 730
e 201 734
e 201 744
e 201 751
e 201 758
e 201 764
e 201 768
e 201 772
e 201 783
e 201 803
e 201 825
e 201 834
e 201 839
e 201 860
e 201 866
e 201 891
e 201 896
e 201 898
e 201 914
e 201 921
e 201 938
e 201 939
e 201 940
e 201 949
e 201 1000
e 202 251
e 202 255
e 202 257
e 202 260
e 202 261
e 202 267
e 202 269
e 202 274
e 202 297
e 202 308
e 202 315
e 202 321
e 202 326
e 202 337
e 202 338
e 202 350
e 202 354
e 202 361
e 202 370
e 202 403
e 202 406
e 202 408
e 202 413
e 202 426
e 202 434
e 202 441
e 202 448
e 202 450
e 202 458
e 202 468
e 202 475
e 202 482
e 202 502
e 202 507
e 202 514
e 202 519
e 202 528
e 202 529
e 202 531
e 202 534
e 202 535
e 202 542
e 202 546
e 202 551
e 202 604
e 202 622
e 202 635
e 202 637
e 202 647
e 202 662
e 202 668
e 202 670
e 202 683
e 202 700
e 202 702
e 202 730
e 202 736
e 202 745
e 202 749
e 202 750
e 202 751
e 202 762
e 202 763
e 202 765
e 202 769
e 202 774
e 202 794
e 202 799
e 202 829
e 202 842
e 202 845
e 202 847
e 202 857
e 202 859
e 202 867
e 202 870
e 202 873
e 202 877
e 202 880
e 202 903
e 202 914
e 202 927
e 202 934
e 202 941
e 202 950
e 202 968
e 202 974
e 203 256
e 203 257
e 203 258
e 203 269
e 203 276
e 203 280
e 203 288
e 203 303
e 203 326
e 203 333
e 203 335
e 203 372
e 203 373
e 203 382
e 203 397
e 203 399
e 203 404
e 203 410
e 203 418
e 203 433
e 203 438
e 203 445
e 203 461
e 203 466
e 203 480
e 203 481
e 203 485
e 203 493
e 203 505
e 203 507
e 203 508
e 203 510
e 203 513
e 203 517
e 203 579
e 203 589
e 203 612
e 203 624
e 203 627
e 203 638
e 203 652
e 203 653
e 203 656
e 203 657
e 203 665
e 203 676
e 203 683
e 203 698
e 203 709
e 203 711
e 203 723
e 203 739
e 203 757
e 203 780
e 203 791
e 203 795
e 203 802
e 203 809
e 203 811
e 203 818
e 203 834
e 203 854
e 203 863
e 203 873
e 203 884
e 203 890
e 203 892
e 203 895
e 203 898
e 203 904
e 203 910
e 203 935
e 203 952
e 203 953
e 203 961
e 203 965
e 203 972
e 203 974
e 203 998
e 204 279
e 204 294
e 204 298
e 204 302
e 204 303
e 204 308
e 204 313
e 204 317
e 204 329
e 204 350
e 204 354
e 204 357
e 204 358
e 204 363
e 204 368
e 204 372
e 204 375
e 204 388
e 204 401
e 204 453
e 204 480
e 204 489
e 204 504
e 204 530
e 204 533
e 204 548
e 204 549
e 204 572
e 204 582
e 204 593
e 204 595
e 204 600
e 204 636
e 204 642
e 204 649
e 204 650
e 204 653
e 204 682
e 204 683
e 204 690
e 204 692
e 204 694
e 204 701
e 204 702
e 204 720
e 204 741
e 204 742
e 204 748
e 204 754
e 204 759
e 204 762
e 204 790
e 204 792
e 204 793
e 204 795
e 204 806
e 204 818
e 204 819
e 204 830
e 204 834
e 204 836
e 204 848
e 204 852
e 204 858
e 204 860
e 204 864
e 204 869
e 204 870
e 204 876
e 204 885
e 204 886
e 204 892
e 204 902
e 204 903
e 204 909
e 204 911
e 204 914
e 204 921
e 204 933
e 204 945
e 204 948
e 204 952
e 204 955
e 204 961
e 204 970
e 204 984
e 204 990
e 205 251
e 205 261
e 205 266
e 205 274
e 205 297
e 205 302
e 205 314
e 205 321
e 205 334
e 205 335
e 205 337
e 205 338
e 205 348
e 205 355
e 205 386
e 205 392
e 205 394
e 205 434
e 205 436
e 205 459
e 205 462
e 205 471
e 205 481
e 205 485
e 205 512
e 205 516
e 205 517
e 205 520
e 205 535
e 205 556
e 205 566
e 205 588
e 205 593
e 205 607
e 205 617
e 205 636
e 205 640
e 205 653
e 205 668
e 205 686
e 205 691
e 205 706
e 205 708
e 205 709
e 205 721
e 205 723
e 205 731
e 205 738
e 205 742
e 205 754
e 205 761
e 205 778
e 205 783
e 205 786
e 205 790
e 205 813
e 205 824
e 205 830
e 205 846
e 205 847
e 205 848
e 205 852
e 205 863
e 205 878
e 205 883
e 205 892
e 205 894
e 205 896
e 205 899
e 205 945
e 205 948
e 205 951
e 205 964
e 205 965
e 205 967
e 205 972
e 205 975
e 205 991
e 205 992
e 205 995
e 205 1000
e 206 264
e 206 269
e 206 297
e 206 319
e 206 322
e 206 332
e 206 333
e 206 335
e 206 349
e 206 358
e 206 376
e 206 389
e 206 395
e 206 406
e 206 425
e 206 445
e 206 453
e 206 459
e 206 460
e 206 463
e 206 476
e 206 480
e 206 484
e 206 491
e 206 494
e 206 497
e 206 499
e 206 501
e 206 519
e 206 523
e 206 526
e 206 530
e 206 533
e 206 583
e 206 585
e 206 600
e 206 603
e 206 611
e 206 621
e 206 634
e 206 638
e 206 643
e 206 646
e 206 652
e 206 656
e 206 658
e 206 660
e 206 661
e 206 668
e 206 669
e 206 679
e 206 682
e 206 700
e 206 704
e 206 707
e 206 713
e 206 730
e 206 742
e 206 746
e 206 769
e 206 772
e 206 814
e 206 819
e 206 825
e 206 837
e 206 849
e 206 863
e 206 864
e 206 870
e 206 873
e 206 882
e 206 890
e 206 894
e 206 924
e 206 935
e 206 940
e 206 947
e 206 961
e 206 963
e 207 259
e 207 270
e 207 290
e 207 308
e 207 312
e 207 320
e 207 351
e 207 363
e 207 372
e 207 376
e 207 390
e 207 393
e 207 397
e 207 402
e 207 403
e 207 405
e 207 420
e 207 425
e 207 434
e 207 475
e 207 488
e 207 504
e 207 506
e 207 515
e 207 542
e 207 549
e 207 554
e 207 555
e 207 561
e 207 564
e 207 570
e 207 586
e 207 605
e 207 620
e 207 624
e 207 628
e 207 634
e 207 636
e 207 643
e 207 654
e 207 670
e 207 704
e 207 711
e 207 713
e 207 754
e 207 777
e 207 795
e 207 800
e 207 810
e 207 824
e 207 831
e 207 845
e 207 853
e 207 865
e 207 869
e 207 878
e 207 892
e 207 895
e 207 905
e 207 912
e 207 913
e 207 914
e 207 928
e 207 940
e 207 958
e 207 964
e 207 966
e 207 971
e 207 989
e 207 994
e 208 252
e 208 257
e 208 286
e 208 289
e 208 304
e 208 325
e 208 340
e 208 363
e 208 373
e 208 375
e 208 376
e 208 381
e 208 397
e 208 399
e 208 402
e 208 411
e 208 422
e 208 423
e 208 434
e 208 439
e 208 449
e 208 457
e 208 458
e 208 462
e 208 469
e 208 479
e 208 488
e 208 501
e 208 506
e 208 509
e 208 511
e 208 522
e 208 527
e 208 540
e 208 541
e 208 568
e 208 575
e 208 579
e 208 653
e 208 664
e 208 680
e 208 692
e 208 694
e 208 718
e 208 723
e 208 730
e 208 732
e 208 733
e 208 745
e 208 747
e 208 752
e 208 759
e 208 761
e 208 798
e 208 802
e 208 811
e 208 816
e 208 825
e 208 828
e 208 838
e 208 845
e 208 873
e 208 888
e 208 898
e 208 930
e 208 931
e 208 951
e 208 953
e 208 966
e 208 971
e 208 987
e 208 998
e 209 258
e 209 263
e 209 269
e 209 286
e 209 291
e 209 295
e 209 301
e 209 309
e 209 317
e 209 335
e 209 338
e 209 348
e 209 350
e 209 359
e 209 365
e 209 372
e 209 426
e 209 431
e 209 465
e 209 474
e 209 493
e 209 517
e 209 518
e 209 556
e 209 564
e 209 569
e 209 570
e 209 571
e 209 582
e 209 618
e 209 623
e 209 627
e 209 634
e 209 640
e 209 674
e 209 675
e 209 705
e 209 726
e 209 734
e 209 743
e 209 752
e 209 775
e 209 779
e 209 792
e 209 820
e 209 822
e 209 848
e 209 849
e 209 850
e 209 853
e 209 855
e 209 865
e 209 867
e 209 868
e 209 887
e 209 889
e 209 903
e 209 906
e 209 933
e 209 938
e 209 946
e 209 952
e 209 955
e 209 958
e 209 959
e 209 976
e 209 996
e 209 998
e 210 252
e 210 279
e 210 283
e 210 295
e 210 311
e 210 315
e 210 318
e 210 328
e 210 339
e 210 340
e 210 342
e 210 356
e 210 361
e 210 381
e 210 383
e 210 392
e 210 402
e 210 426
e 210 436
e 210 447
e 210 469
e 210 494
e 210 508
e 210 531
e 210 533
e 210 567
e 210 570
e 210 586
e 210 587
e 210 612
e 210 615
e 210 632
e 210 640
e 210 646
e 210 660
e 210 685
e 210 695
e 210 699
e 210 716
e 210 717
e 210 741
e 210 765
e 210 771
e 210 775
e 210 797
e 210 804
e 210 835
e 210 862
e 210 876
e 210 893
e 210 894
e 210 895
e 210 898
e 210 907
e 210 912
e 210 926
e 210 958
e 210 959
e 210 960
e 210 965
e 210 967
e 210 968
e 210 969
e 210 970
e 210 985
e 210 997
e 211 269
e 211 273
e 211 286
e 211 292
e 211 301
e 211 304
e 211 307
e 211 309
e 211 327
e 211 330
e 211 334
e 211 349
e 211 351
e 211 354
e 211 363
e 211 379
e 211 387
e 211 411
e 211 424
e 211 425
e 211 430
e 211 444
e 211 457
e 211 468
e 211 472
e 211 473
e 211 482
e 211 484
e 211 486
e 211 489
e 211 496
e 211 502
e 211 515
e 211 519
e 211 545
e 211 549
e 211 554
e 211 563
e 211 580
e 211 584
e 211 587
e 211 597
e 211 599
e 211 630
e 211 633
e 211 638
e 211 679
e 211 724
e 211 745
e 211 749
e 211 751
e 211 753
e 211 755
e 211 788
e 211 800
e 211 816
e 211 831
e 211 857
e 211 866
e 211 868
e 211 883
e 211 904
e 211 911
e 211 959
e 211 960
e 211 983
e 211 985
e 212 258
e 212 260
e 212 263
e 212 265
e 212 268
e 212 281
e 212 292
e 212 304
e 212 310
e 212 317
e 212 327
e 212 337
e 212 341
e 212 345
e 212 346
e 212 366
e 212 411
e 212 413
e 212 432
e 212 461
e 212 464
e 212 476
e 212 490
e 212 495
e 212 530
e 212 536
e 212 545
e 212 549
e 212 555
e 212 570
e 212 599
e 212 612
e 212 618
e 212 619
e 212 626
e 212 634
e 212 635
e 212 640
e 212 648
e 212 659
e 212 667
e 212 681
e 212 682
e 212 690
e 212 700
e 212 723
e 212 737
e 212 748
e 212 755
e 212 758
e 212 775
e 212 780
e 212 782
e 212 800
e 212 810
e 212 862
e 212 884
e 212 890
e 212 891
e 212 897
e 212 900
e 212 919
e 212 921
e 212 930
e 212 931
e 212 932
e 212 934
e 212 935
e 212 940
e 212 964
e 212 987
e 212 993
e 212 997
e 213 267
e 213 287
e 213 307
e 213 313
e 213 314
e 213 315
e 213 325
e 213 338
e 213 339
e 213 341
e 213 343
e 213 351
e 213 353
e 213 368
e 213 373
e 213 379
e 213 380
e 213 399
e 213 401
e 213 411
e 213 415
e 213 421
e 213 430
e 213 436
e 213 439
e 213 440
e 213 455
e 213 456
e 213 462
e 213 464
e 213 469
e 213 475
e 213 477
e 213 486
e 213 492
e 213 493
e 213 504
e 213 507
e 213 515
e 213 530
e 213 557
e 213 561
e 213 565
e 213 571
e 213 574
e 213 576
e 213 583
e 213 593
e 213 597
e 213 618
e 213 621
e 213 628
e 213 630
e 213 631
e 213 638
e 213 640
e 213 657
e 213 671
e 213 675
e 213 684
e 213 689
e 213 692
e 213 695
e 213 700
e 213 710
e 213 740
e 213 746
e 213 752
e 213 753
e 213 771
e 213 777
e 213 786
e 213 791
e 213 792
e 213 809
e 213 829
e 213 836
e 213 840
e 213 844
e 213 859
e 213 860
e 213 872
e 213 876
e 213 885
e 213 889
e 213 894
e 213 901
e 213 915
e 213 927
e 213 933
e 213 937
e 213 939
e 213 942
e 213 958
e 213 992
e 213 996
e 214 258
e 214 260
e 214 265
e 214 266
e 214 292
e 214 296
e 214 305
e 214 359
e 214 365
e 214 373
e 214 376
e 214 377
e 214 416
e 214 421
e 214 430
e 214 443
e 214 448
e 214 469
e 214 492
e 214 495
e 214 512
e 214 514
e 214 518
e 214 530
e 214 533
e 214 539
e 214 540
e 214 546
e 214 550
e 214 551
e 214 559
e 214 561
e 214 595
e 214 599
e 214 605
e 214 607
e 214 620
e 214 633
e 214 651
e 214 654
e 214 655
e 214 670
e 214 675
e 214 680
e 214 684
e 214 691
e 214 695
e 214 725
e 214 732
e 214 756
e 214 780
e 214 792
e 214 801
e 214 824
e 214 826
e 214 827
e 214 880
e 214 911
e 214 914
e 214 919
e 214 925
e 214 946
e 214 983
e 214 986
e 214 992
e 214 998
e 215 252
e 215 265
e 215 273
e 215 278
e 215 295
e 215 304
e 215 318
e 215 345
e 215 357
e 215 359
e 215 360
e 215 363
e 215 365
e 215 366
e 215 370
e 215 381
e 215 387
e 215 399
e 215 430
e 215 466
e 215 468
e 215 469
e 215 471
e 215 485
e 215 490
e 215 516
e 215 535
e 215 538
e 215 548
e 215 572
e 215 574
e 215 576
e 215 579
e 215 599
e 215 650
e 215 653
e 215 663
e 215 672
e 215 678
e 215 680
e 215 684
e 215 690
e 215 700
e 215 701
e 215 704
e 215 706
e 215 711
e 215 735
e 215 737
e 215 738
e 215 745
e 215 766
e 215 768
e 215 780
e 215 783
e 215 786
e 215 787
e 215 814
e 215 835
e 215 863
e 215 884
e 215 895
e 215 901
e 215 902
e 215 931
e 215 934
e 215 938
e 215 950
e 215 958
e 215 959
e 215 962
e 215 970
e 215 981
e 215 989
e 215 1000
e 216 252
e 216 262
e 216 265
e 216 269
e 216 289
e 216 294
e 216 299
e 216 311
e 216 353
e 216 371
e 216 375
e 216 396
e 216 397
e 216 399
e 216 401
e 216 414
e 216 421
e 216 430
e 216 457
e 216 460
e 216 468
e 216 477
e 216 508
e 216 519
e 216 530
e 216 531
e 216 536
e 216 538
e 216 542
e 216 546
e 216 559
e 216 582
e 216 618
e 216 641
e 216 643
e 216 662
e 216 675
e 216 676
e 216 690
e 216 705
e 216 707
e 216 715
e 216 721
e 216 728
e 216 738
e 216 742
e 216 788
e 216 791
e 216 813
e 216 819
e 216 837
e 216 862
e 216 879
e 216 884
e 216 886
e 216 897
e 216 921
e 216 928
e 216 936
e 216 947
e 216 949
e 216 953
e 216 954
e 216 961
e 216 967
e 216 978
e 216 998
e 217 273
e 217 279
e 217 281
e 217 289
e 217 297
e 217 306
e 217 311
e 217 315
e 217 331
e 217 333
e 217 340
e 217 346
e 217 350
e 217 353
e 217 362
e 217 364
e 217 375
e 217 381
e 217 407
e 217 427
e 217 431
e 217 445
e 217 457
e 217 460
e 217 476
e 217 504
e 217 506
e 217 516
e 217 520
e 217 537
e 217 551
e 217 561
e 217 567
e 217 573
e 217 578
e 217 581
e 217 600
e 217 606
e 217 607
e 217 611
e 217 623
e 217 628
e 217 631
e 217 634
e 217 662
e 217 670
e 217 673
e 217 677
e 217 680
e 217 685
e 217 694
e 217 695
e 217 711
e 217 727
e 217 769
e 217 791
e 217 804
e 217 829
e 217 832
e 217 835
e 217 853
e 217 858
e 217 859
e 217 873
e 217 880
e 217 886
e 217 908
e 217 913
e 217 923
e 217 941
e 217 976
e 217 977
e 218 256
e 218 258
e 218 263
e 218 300
e 218 311
e 218 316
e 218 328
e 218 330
e 218 332
e 218 347
e 218 358
e 218 362
e 218 381
e 218 384
e 218 388
e 218 389
e 218 398
e 218 408
e 218 417
e 218 445
e 218 448
e 218 480
e 218 482
e 218 500
e 218 509
e 218 537
e 218 545
e 218 559
e 218 571
e 218 590
e 218 593
e 218 605
e 218 630
e 218 633
e 218 636
e 218 640
e 218 643
e 218 651
e 218 659
e 218 666
e 218 685
e 218 689
e 218 697
e 218 747
e 218 749
e 218 760
e 218 768
e 218 783
e 218 785
e 218 789
e 218 793
e 218 808
e 218 818
e 218 820
e 218 839
e 218 842
e 218 864
e 218 880
e 218 895
e 218 911
e 218 912
e 218 921
e 218 922
e 218 932
e 218 938
e 218 949
e 218 953
e 218 988
e 219 262
e 219 263
e 219 266
e 219 268
e 219 275
e 219 276
e 219 284
e 219 309
e 219 315
e 219 326
e 219 329
e 219 338
e 219 339
e 219 343
e 219 348
e 219 353
e 219 360
e 219 366
e 219 369
e 219 383
e 219 412
e 219 414
e 219 416
e 219 464
e 219 468
e 219 478
e 219 490
e 219 500
e 219 501
e 219 508
e 219 514
e 219 519
e 219 540
e 219 548
e 219 550
e 219 559
e 219 565
e 219 603
e 219 611
e 219 627
e 219 638
e 219 641
e 219 660
e 219 663
e 219 688
e 219 696
e 219 703
e 219 710
e 219 734
e 219 741
e 219 743
e 219 765
e 219 772
e 219 787
e 219 798
e 219 814
e 219 816
e 219 818
e 219 827
e 219 850
e 219 855
e 219 864
e 219 868
e 219 870
e 219 873
e 219 874
e 219 889
e 219 893
e 219 897
e 219 922
e 219 929
e 219 930
e 219 944
e 219 948
e 219 950
e 219 956
e 219 957
e 219 962
e 219 977
e 219 983
e 220 273
e 220 275
e 220 290
e 220 311
e 220 320
e 220 326
e 220 336
e 220 341
e 220 349
e 220 367
e 220 373
e 220 385
e 220 388
e 220 394
e 220 395
e 220 402
e 220 403
e 220 434
e 220 449
e 220 463
e 220 478
e 220 481
e 220 484
e 220 495
e 220 502
e 220 505
e 220 506
e 220 509
e 220 511
e 220 531
e 220 538
e 220 543
e 220 570
e 220 574
e 220 584
e 220 589
e 220 595
e 220 626
e 220 632
e 220 637
e 220 645
e 220 663
e 220 666
e 220 671
e 220 689
e 220 712
e 220 713
e 220 715
e 220 733
e 220 738
e 220 739
e 220 765
e 220 769
e 220 776
e 220 808
e 220 822
e 220 829
e 220 834
e 220 841
e 220 850
e 220 864
e 220 872
e 220 889
e 220 900
e 220 906
e 220 925
e 220 936
e 220 962
e 220 963
e 220 976
e 220 997
e 221 259
e 221 262
e 221 270
e 221 274
e 221 286
e 221 291
e 221 299
e 221 304
e 221 307
e 221 309
e 221 318
e 221 322
e 221 336
e 221 343
e 221 347
e 221 348
e 221 371
e 221 387
e 221 389
e 221 415
e 221 417
e 221 424
e 221 431
e 221 436
e 221 441
e 221 444
e 221 445
e 221 452
e 221 466
e 221 482
e 221 485
e 221 527
e 221 531
e 221 535
e 221 545
e 221 567
e 221 569
e 221 580
e 221 615
e 221 619
e 221 624
e 221 635
e 221 637
e 221 651
e 221 658
e 221 660
e 221 661
e 221 676
e 221 684
e 221 686
e 221 710
e 221 730
e 221 738
e 221 748
e 221 750
e 221 754
e 221 761
e 221 803
e 221 805
e 221 807
e 221 836
e 221 843
e 221 855
e 221 861
e 221 876
e 221 884
e 221 890
e 221 899
e 221 903
e 221 906
e 221 912
e 221 933
e 221 947
e 221 967
e 221 973
e 221 979
e 221 990
e 221 996
e 222 260
e 222 264
e 222 265
e 222 273
e 222 290
e 222 294
e 222 301
e 222 313
e 222 316
e 222 338
e 222 351
e 222 366
e 222 369
e 222 373
e 222 397
e 222 403
e 222 419
e 222 421
e 222 423
e 222 439
e 222 446
e 222 483
e 222 490
e 222 515
e 222 517
e 222 523
e 222 548
e 222 572
e 222 577
e 222 588
e 222 605
e 222 611
e 222 622
e 222 625
e 222 642
e 222 651
e 222 657
e 222 677
e 222 704
e 222 706
e 222 740
e 222 745
e 222 746
e 222 763
e 222 782
e 222 798
e 222 864
e 222 869
e 222 874
e 222 876
e 222 883
e 222 891
e 222 895
e 222 926
e 222 929
e 222 948
e 222 964
e 222 965
e 222 970
e 222 972
e 222 975
e 222 995
e 223 256
e 223 258
e 223 265
e 223 271
e 223 275
e 223 277
e 223 288
e 223 289
e 223 293
e 223 315
e 223 321
e 223 322
e 223 328
e 223 336
e 223 358
e 223 371
e 223 376
e 223 379
e 223 408
e 223 409
e 223 417
e 223 418
e 223 424
e 223 439
e 223 443
e 223 457
e 223 466
e 223 467
e 223 472
e 223 475
e 223 487
e 223 491
e 223 497
e 223 500
e 223 508
e 223 516
e 223 519
e 223 529
e 223 539
e 223 545
e 223 586
e 223 601
e 223 604
e 223 605
e 223 609
e 223 612
e 223 636
e 223 647
e 223 649
e 223 698
e 223 699
e 223 710
e 223 719
e 223 720
e 223 732
e 223 748
e 223 756
e 223 757
e 223 765
e 223 768
e 223 771
e 223 780
e 223 784
e 223 787
e 223 804
e 223 818
e 223 821
e 223 845
e 223 875
e 223 884
e 223 902
e 223 911
e 223 915
e 223 922
e 223 926
e 223 931
e 223 936
e 223 950
e 223 956
e 223 958
e 223 965
e 223 975
e 224 257
e 224 265
e 224 281
e 224 306
e 224 342
e 224 345
e 224 348
e 224 353
e 224 356
e 224 382
e 224 394
e 224 398
e 224 404
e 224 412
e 224 426
e 224 433
e 224 435
e 224 440
e 224 444
e 224 452
e 224 453
e 224 456
e 224 514
e 224 518
e 224 520
e 224 527
e 224 528
e 224 529
e 224 542
e 224 567
e 224 568
e 224 578
e 224 579
e 224 588
e 224 615
e 224 630
e 224 639
e 224 645
e 224 701
e 224 757
e 224 783
e 224 791
e 224 794
e 224 796
e 224 798
e 224 801
e 224 810
e 224 812
e 224 829
e 224 858
e 224 873
e 224 889
e 224 893
e 224 899
e 224 913
e 224 917
e 224 929
e 224 932
e 224 940
e 224 945
e 224 947
e 224 965
e 224 969
e 224 970
e 224 999
e 225 270
e 225 275
e 225 284
e 225 286
e 225 302
e 225 313
e 225 314
e 225 327
e 225 345
e 225 355
e 225 377
e 225 384
e 225 391
e 225 397
e 225 417
e 225 461
e 225 472
e 225 475
e 225 486
e 225 500
e 225 508
e 225 515
e 225 532
e 225 533
e 225 536
e 225 558
e 225 563
e 225 577
e 225 579
e 225 598
e 225 618
e 225 642
e 225 649
e 225 650
e 225 651
e 225 659
e 225 660
e 225 661
e 225 676
e 225 696
e 225 700
e 225 701
e 225 740
e 225 746
e 225 750
e 225 793
e 225 805
e 225 813
e 225 827
e 225 838
e 225 843
e 225 846
e 225 849
e 225 852
e 225 857
e 225 858
e 225 869
e 225 893
e 225 898
e 225 916
e 225 920
e 225 925
e 225 933
e 225 963
e 225 966
e 225 992
e 225 996
e 226 261
e 226 265
e 226 273
e 226 284
e 226 286
e 226 297
e 226 298
e 226 302
e 226 312
e 226 314
e 226 316
e 226 317
e 226 327
e 226 336
e 226 339
e 226 340
e 226 342
e 226 349
e 226 362
e 226 378
e 226 403
e 226 422
e 226 434
e 226 445
e 226 449
e 226 470
e 226 485
e 226 492
e 226 505
e 226 506
e 226 514
e 226 523
e 226 557
e 226 576
e 226 577
e 226 583
e 226 585
e 226 590
e 226 598
e 226 599
e 226 602
e 226 606
e 226 630
e 226 633
e 226 646
e 226 655
e 226 657
e 226 671
e 226 678
e 226 688
e 226 710
e 226 718
e 226 719
e 226 750
e 226 771
e 226 785
e 226 796
e 226 803
e 226 830
e 226 841
e 226 843
e 226 858
e 226 873
e 226 885
e 226 893
e 226 917
e 226 927
e 226 929
e 226 937
e 226 946
e 226 951
e 226 954
e 226 956
e 226 975
e 226 988
e 226 993
e 226 997
e 227 269
e 227 270
e 227 281
e 227 285
e 227 289
e 227 303
e 227 304
e 227 325
e 227 328
e 227 333
e 227 334
e 227 340
e 227 356
e 227 366
e 227 376
e 227 381
e 227 423
e 227 441
e 227 446
e 227 498
e 227 504
e 227 510
e 227 522
e 227 526
e 227 544
e 227 548
e 227 549
e 227 562
e 227 565
e 227 570
e 227 572
e 227 577
e 227 581
e 227 593
e 227 595
e 227 612
e 227 618
e 227 644
e 227 660
e 227 663
e 227 690
e 227 711
e 227 721
e 227 725
e 227 727
e 227 730
e 227 740
e 227 745
e 227 752
e 227 782
e 227 791
e 227 812
e 227 816
e 227 821
e 227 823
e 227 828
e 227 836
e 227 842
e 227 849
e 227 850
e 227 856
e 227 863
e 227 874
e 227 878
e 227 881
e 227 897
e 227 903
e 227 916
e 227 917
e 227 926
e 227 927
e 227 933
e 227 934
e 227 943
e 227 951
e 227 960
e 227 964
e 227 974
e 227 981
e 228 251
e 228 271
e 228 272
e 228 280
e 228 285
e 228 287
e 228 290
e 228 291
e 228 292
e 228 298
e 228 304
e 228 307
e 228 312
e 228 325
e 228 338
e 228 340
e 228 351
e 228 352
e 228 361
e 228 389
e 228 418
e 228 420
e 228 426
e 228 440
e 228 452
e 228 454
e 228 459
e 228 464
e 228 468
e 228 480
e 228 481
e 228 493
e 228 496
e 228 501
e 228 534
e 228 536
e 228 561
e 228 578
e 228 583
e 228 588
e 228 592
e 228 604
e 228 620
e 228 621
e 228 622
e 228 631
e 228 632
e 228 636
e 228 652
e 228 655
e 228 666
e 228 669
e 228 671
e 228 674
e 228 677
e 228 681
e 228 688
e 228 694
e 228 728
e 228 730
e 228 744
e 228 753
e 228 762
e 228 763
e 228 776
e 228 787
e 228 824
e 228 834
e 228 840
e 228 842
e 228 849
e 228 881
e 228 882
e 228 888
e 228 909
e 228 913
e 228 929
e 228 942
e 228 947
e 228 952
e 228 955
e 228 956
e 228 957
e 228 959
e 228 966
e 228 972
e 228 974
e 228 983
e 228 997
e 229 256
e 229 271
e 229 294
e 229 300
e 229 303
e 229 305
e 229 306
e 229 310
e 229 337
e 229 342
e 229 349
e 229 365
e 229 372
e 229 382
e 229 387
e 229 410
e 229 412
e 229 421
e 229 424
e 229 431
e 229 435
e 229 454
e 229 456
e 229 470
e 229 475
e 229 477
e 229 488
e 229 490
e 229 504
e 229 506
e 229 514
e 229 524
e 229 544
e 229 557
e 229 565
e 229 566
e 229 589
e 229 595
e 229 601
e 229 603
e 229 613
e 229 625
e 229 642
e 229 646
e 229 663
e 229 679
e 229 698
e 229 700
e 229 704
e 229 716
e 229 722
e 229 740
e 229 754
e 229 756
e 229 762
e 229 770
e 229 775
e 229 781
e 229 800
e 229 813
e 229 818
e 229 821
e 229 825
e 229 835
e 229 873
e 229 877
e 229 878
e 229 886
e 229 894
e 229 895
e 229 897
e 229 901
e 229 920
e 229 922
e 229 927
e 229 930
e 229 934
e 229 939
e 229 941
e 229 965
e 229 983
e 229 984
e 229 993
e 229 996
e 229 998
e 230 271
e 230 296
e 230 300
e 230 330
e 230 347
e 230 355
e 230 356
e 230 361
e 230 379
e 230 387
e 230 429
e 230 439
e 230 442
e 230 453
e 230 467
e 230 473
e 230 483
e 230 486
e 230 488
e 230 497
e 230 508
e 230 529
e 230 533
e 230 544
e 230 545
e 230 551
e 230 565
e 230 571
e 230 572
e 230 579
e 230 580
e 230 589
e 230 591
e 230 601
e 230 605
e 230 609
e 230 611
e 230 622
e 230 626
e 230 635
e 230 641
e 230 650
e 230 669
e 230 672
e 230 691
e 230 694
e 230 717
e 230 726
e 230 727
e 230 738
e 230 763
e 230 831
e 230 838
e 230 846
e 230 851
e 230 854
e 230 870
e 230 873
e 230 878
e 230 881
e 230 882
e 230 886
e 230 887
e 230 892
e 230 895
e 230 897
e 230 909
e 230 935
e 230 945
e 230 947
e 230 951
e 230 954
e 230 972
e 230 984
e 231 251
e 231 259
e 231 262
e 231 264
e 231 265
e 231 278
e 231 279
e 231 289
e 231 321
e 231 344
e 231 351
e 231 354
e 231 361
e 231 365
e 231 381
e 231 418
e 231 429
e 231 435
e 231 447
e 231 457
e 231 463
e 231 470
e 231 484
e 231 487
e 231 493
e 231 497
e 231 503
e 231 521
e 231 524
e 231 528
e 231 529
e 231 549
e 231 559
e 231 562
e 231 571
e 231 585
e 231 602
e 231 605
e 231 607
e 231 608
e 231 612
e 231 613
e 231 614
e 231 629
e 231 632
e 231 640
e 231 651
e 231 679
e 231 685
e 231 689
e 231 693
e 231 700
e 231 702
e 231 703
e 231 732
e 231 737
e 231 749
e 231 763
e 231 769
e 231 780
e 231 784
e 231 786
e 231 793
e 231 804
e 231 807
e 231 814
e 231 848
e 231 849
e 231 850
e 231 876
e 231 905
e 231 913
e 231 916
e 231 917
e 231 932
e 231 933
e 231 935
e 231 937
e 231 940
e 231 946
e 231 947
e 231 956
e 231 988
e 232 266
e 232 271
e 232 272
e 232 274
e 232 280
e 232 288
e 232 300
e 232 328
e 232 333
e 232 347
e 232 352
e 232 353
e 232 371
e 232 377
e 232 385
e 232 388
e 232 415
e 232 417
e 232 420
e 232 436
e 232 437
e 232 453
e 232 457
e 232 467
e 232 478
e 232 501
e 232 511
e 232 524
e 232 533
e 232 534
e 232 535
e 232 540
e 232 546
e 232 549
e 232 555
e 232 569
e 232 582
e 232 587
e 232 592
e 232 599
e 232 602
e 232 604
e 232 620
e 232 622
e 232 639
e 232 646
e 232 651
e 232 660
e 232 664
e 232 665
e 232 673
e 232 680
e 232 683
e 232 686
e 232 688
e 232 692
e 232 697
e 232 699
e 232 710
e 232 711
e 232 716
e 232 762
e 232 766
e 232 780
e 232 795
e 232 799
e 232 809
e 232 811
e 232 821
e 232 835
e 232 853
e 232 861
e 232 884
e 232 903
e 232 910
e 232 934
e 232 936
e 232 943
e 232 945
e 232 946
e 232 951
e 232 965
e 232 986
e 232 987
e 232 988
e 232 995
e 232 996
e 233 260
e 233 261
e 233 262
e 233 267
e 233 269
e 233 284
e 233 296
e 233 300
e 233 319
e 233 333
e 233 343
e 233 366
e 233 379
e 233 381
e 233 387
e 233 390
e 233 393
e 233 395
e 233 399
e 233 404
e 233 410
e 233 420
e 233 424
e 233 426
e 233 429
e 233 433
e 233 446
e 233 454
e 233 455
e 233 456
e 233 471
e 233 486
e 233 487
e 233 499
e 233 501
e 233 518
e 233 544
e 233 568
e 233 576
e 233 596
e 233 599
e 233 604
e 233 628
e 233 654
e 233 662
e 233 669
e 233 670
e 233 673
e 233 702
e 233 712
e 233 721
e 233 724
e 233 737
e 233 745
e 233 760
e 233 785
e 233 791
e 233 798
e 233 800
e 233 804
e 233 810
e 233 811
e 233 816
e 233 818
e 233 819
e 233 823
e 233 834
e 233 836
e 233 845
e 233 855
e 233 863
e 233 878
e 233 882
e 233 891
e 233 893
e 233 901
e 233 902
e 233 905
e 233 917
e 233 923
e 233 949
e 233 951
e 233 954
e 233 956
e 233 961
e 233 982
e 233 987
e 233 989
e 233 992
e 234 256
e 234 258
e 234 263
e 234 265
e 234 280
e 234 284
e 234 288
e 234 325
e 234 329
e 234 336
e 234 347
e 234 350
e 234 370
e 234 375
e 234 381
e 234 390
e 234 391
e 234 397
e 234 399
e 234 403
e 234 431
e 234 453
e 234 455
e 234 462
e 234 464
e 234 467
e 234 479
e 234 481
e 234 491
e 234 493
e 234 509
e 234 511
e 234 513
e 234 515
e 234 517
e 234 520
e 234 533
e 234 551
e 234 567
e 234 568
e 234 589
e 234 594
e 234 596
e 234 606
e 234 617
e 234 634
e 234 669
e 234 677
e 234 695
e 234 704
e 234 724
e 234 725
e 234 736
e 234 744
e 234 769
e 234 778
e 234 782
e 234 793
e 234 799
e 234 801
e 234 804
e 234 811
e 234 816
e 234 836
e 234 844
e 234 847
e 234 851
e 234 869
e 234 873
e 234 921
e 234 938
e 234 948
e 234 956
e 234 962
e 234 989
e 234 995
e 235 260
e 235 281
e 235 291
e 235 315
e 235 326
e 235 336
e 235 343
e 235 348
e 235 355
e 235 370
e 235 371
e 235 376
e 235 382
e 235 393
e 235 416
e 235 422
e 235 463
e 235 470
e 235 472
e 235 479
e 235 490
e 235 506
e 235 516
e 235 518
e 235 523
e 235 526
e 235 531
e 235 543
e 235 545
e 235 560
e 235 562
e 235 568
e 235 579
e 235 591
e 235 592
e 235 595
e 235 597
e 235 598
e 235 609
e 235 613
e 235 617
e 235 621
e 235 631
e 235 655
e 235 665
e 235 669
e 235 678
e 235 679
e 235 692
e 235 702
e 235 719
e 235 731
e 235 781
e 235 794
e 235 814
e 235 827
e 235 830
e 235 831
e 235 840
e 235 842
e 235 863
e 235 892
e 235 899
e 235 914
e 235 924
e 235 932
e 235 949
e 235 956
e 235 957
e 235 970
e 236 266
e 236 268
e 236 276
e 236 278
e 236 293
e 236 300
e 236 327
e 236 344
e 236 345
e 236 363
e 236 380
e 236 388
e 236 389
e 236 390
e 236 393
e 236 397
e 236 401
e 236 437
e 236 453
e 236 461
e 236 474
e 236 481
e 236 486
e 236 492
e 236 495
e 236 506
e 236 541
e 236 549
e 236 566
e 236 578
e 236 581
e 236 597
e 236 615
e 236 623
e 236 644
e 236 654
e 236 680
e 236 683
e 236 695
e 236 702
e 236 737
e 236 738
e 236 770
e 236 784
e 236 787
e 236 799
e 236 800
e 236 802
e 236 817
e 236 831
e 236 857
e 236 860
e 236 863
e 236 875
e 236 883
e 236 886
e 236 887
e 236 893
e 236 905
e 236 908
e 236 915
e 236 921
e 236 925
e 236 927
e 236 932
e 236 936
e 236 938
e 236 950
e 236 964
e 236 965
e 236 966
e 236 968
e 236 974
e 236 987
e 236 998
e 237 251
e 237 257
e 237 265
e 237 272
e 237 274
e 237 282
e 237 296
e 237 312
e 237 321
e 237 340
e 237 341
e 237 365
e 237 369
e 237 378
e 237 386
e 237 391
e 237 397
e 237 399
e 237 406
e 237 407
e 237 411
e 237 431
e 237 451
e 237 454
e 237 461
e 237 471
e 237 472
e 237 474
e 237 508
e 237 537
e 237 547
e 237 554
e 237 562
e 237 579
e 237 583
e 237 584
e 237 612
e 237 618
e 237 632
e 237 635
e 237 637
e 237 647
e 237 658
e 237 674
e 237 688
e 237 690
e 237 734
e 237 738
e 237 741
e 237 743
e 237 759
e 237 779
e 237 807
e 237 808
e 237 817
e 237 820
e 237 837
e 237 846
e 237 857
e 237 879
e 237 880
e 237 883
e 237 894
e 237 896
e 237 911
e 237 912
e 237 929
e 237 936
e 237 950
e 237 967
e 237 968
e 238 269
e 238 274
e 238 279
e 238 284
e 238 297
e 238 302
e 238 307
e 238 333
e 238 337
e 238 355
e 238 359
e 238 362
e 238 379
e 238 385
e 238 387
e 238 396
e 238 399
e 238 411
e 238 425
e 238 433
e 238 439
e 238 448
e 238 451
e 238 462
e 238 472
e 238 480
e 238 485
e 238 511
e 238 512
e 238 526
e 238 528
e 238 533
e 238 538
e 238 540
e 238 545
e 238 560
e 238 568
e 238 600
e 238 622
e 238 632
e 238 634
e 238 643
e 238 645
e 238 655
e 238 669
e 238 678
e 238 694
e 238 695
e 238 711
e 238 727
e 238 732
e 238 734
e 238 741
e 238 751
e 238 753
e 238 762
e 238 764
e 238 767
e 238 768
e 238 779
e 238 794
e 238 795
e 238 809
e 238 820
e 238 872
e 238 875
e 238 883
e 238 888
e 238 891
e 238 904
e 238 909
e 238 916
e 238 924
e 238 925
e 238 933
e 238 942
e 238 944
e 238 946
e 238 947
e 238 962
e 238 983
e 238 994
e 239 253
e 239 270
e 239 280
e 239 285
e 239 295
e 239 317
e 239 321
e 239 332
e 239 334
e 239 336
e 239 338
e 239 340
e 239 342
e 239 345
e 239 348
e 239 350
e 239 367
e 239 369
e 239 375
e 239 390
e 239 405
e 239 419
e 239 426
e 239 430
e 239 462
e 239 485
e 239 490
e 239 496
e 239 503
e 239 505
e 239 518
e 239 519
e 239 525
e 239 526
e 239 527
e 239 528
e 239 537
e 239 552
e 239 571
e 239 575
e 239 587
e 239 599
e 239 614
e 239 623
e 239 649
e 239 650
e 239 669
e 239 694
e 239 716
e 239 723
e 239 725
e 239 731
e 239 755
e 239 768
e 239 771
e 239 782
e 239 796
e 239 798
e 239 809
e 239 828
e 239 831
e 239 838
e 239 841
e 239 849
e 239 852
e 239 862
e 239 868
e 239 886
e 239 916
e 239 919
e 239 923
e 239 927
e 239 931
e 239 939
e 239 941
e 239 947
e 239 957
e 239 967
e 239 969
e 240 262
e 240 280
e 240 305
e 240 338
e 240 339
e 240 340
e 240 341
e 240 350
e 240 357
e 240 376
e 240 380
e 240 381
e 240 394
e 240 414
e 240 436
e 240 443
e 240 465
e 240 472
e 240 510
e 240 512
e 240 522
e 240 548
e 240 549
e 240 562
e 240 564
e 240 566
e 240 585
e 240 587
e 240 592
e 240 607
e 240 611
e 240 615
e 240 617
e 240 621
e 240 625
e 240 633
e 240 638
e 240 642
e 240 646
e 240 654
e 240 702
e 240 711
e 240 713
e 240 717
e 240 724
e 240 740
e 240 753
e 240 755
e 240 763
e 240 776
e 240 777
e 240 783
e 240 786
e 240 790
e 240 795
e 240 801
e 240 802
e 240 804
e 240 813
e 240 825
e 240 832
e 240 834
e 240 850
e 240 857
e 240 874
e 240 889
e 240 897
e 240 901
e 240 903
e 240 906
e 240 907
e 240 920
e 240 926
e 240 946
e 240 949
e 240 978
e 240 987
e 240 992
e 241 253
e 241 255
e 241 281
e 241 302
e 241 354
e 241 385
e 241 401
e 241 406
e 241 407
e 241 418
e 241 436
e 241 437
e 241 453
e 241 479
e 241 487
e 241 488
e 241 493
e 241 496
e 241 508
e 241 520
e 241 537
e 241 572
e 241 573
e 241 574
e 241 592
e 241 601
e 241 629
e 241 631
e 241 640
e 241 663
e 241 667
e 241 671
e 241 683
e 241 692
e 241 694
e 241 714
e 241 720
e 241 727
e 241 729
e 241 736
e 241 742
e 241 750
e 241 753
e 241 755
e 241 758
e 241 760
e 241 762
e 241 776
e 241 809
e 241 814
e 241 821
e 241 833
e 241 839
e 241 851
e 241 857
e 241 862
e 241 867
e 241 883
e 241 892
e 241 903
e 241 922
e 241 937
e 241 954
e 241 959
e 241 966
e 241 975
e 241 984
e 241 991
e 242 263
e 242 266
e 242 282
e 242 287
e 242 312
e 242 320
e 242 336
e 242 347
e 242 348
e 242 349
e 242 359
e 242 363
e 242 369
e 242 376
e 242 395
e 242 398
e 242 406
e 242 408
e 242 427
e 242 430
e 242 446
e 242 456
e 242 460
e 242 463
e 242 471
e 242 511
e 242 513
e 242 522
e 242 523
e 242 532
e 242 535
e 242 547
e 242 554
e 242 555
e 242 567
e 242 599
e 242 616
e 242 617
e 242 626
e 242 660
e 242 672
e 242 699
e 242 713
e 242 734
e 242 754
e 242 780
e 242 784
e 242 789
e 242 825
e 242 833
e 242 843
e 242 847
e 242 848
e 242 856
e 242 857
e 242 861
e 242 892
e 242 914
e 242 924
e 242 925
e 242 934
e 242 938
e 242 943
e 242 953
e 242 955
e 242 961
e 242 966
e 242 984
e 243 281
e 243 303
e 243 325
e 243 328
e 243 329
e 243 348
e 243 353
e 243 389
e 243 393
e 243 394
e 243 395
e 243 396
e 243 400
e 243 433
e 243 453
e 243 455
e 243 459
e 243 468
e 243 479
e 243 481
e 243 487
e 243 496
e 243 511
e 243 519
e 243 525
e 243 533
e 243 541
e 243 549
e 243 553
e 243 556
e 243 571
e 243 581
e 243 596
e 243 606
e 243 610
e 243 627
e 243 628
e 243 629
e 243 678
e 243 681
e 243 682
e 243 712
e 243 717
e 243 721
e 243 736
e 243 741
e 243 743
e 243 750
e 243 760
e 243 764
e 243 768
e 243 775
e 243 777
e 243 784
e 243 786
e 243 791
e 243 793
e 243 815
e 243 818
e 243 826
e 243 829
e 243 862
e 243 866
e 243 898
e 243 909
e 243 910
e 243 917
e 243 923
e 243 929
e 243 961
e 243 968
e 243 977
e 243 982
e 243 984
e 243 987
e 243 991
e 243 993
e 244 265
e 244 281
e 244 283
e 244 289
e 244 292
e 244 297
e 244 314
e 244 318
e 244 334
e 244 344
e 244 347
e 244 351
e 244 362
e 244 370
e 244 372
e 244 388
e 244 398
e 244 400
e 244 407
e 244 430
e 244 441
e 244 444
e 244 445
e 244 457
e 244 470
e 244 471
e 244 494
e 244 499
e 244 544
e 244 580
e 244 582
e 244 594
e 244 595
e 244 604
e 244 610
e 244 617
e 244 618
e 244 622
e 244 624
e 244 625
e 244 635
e 244 642
e 244 643
e 244 644
e 244 655
e 244 664
e 244 686
e 244 697
e 244 698
e 244 717
e 244 720
e 244 728
e 244 745
e 244 754
e 244 756
e 244 772
e 244 787
e 244 839
e 244 842
e 244 846
e 244 851
e 244 856
e 244 859
e 244 876
e 244 881
e 244 907
e 244 910
e 244 911
e 244 945
e 244 952
e 244 956
e 244 960
e 244 976
e 244 980
e 244 982
e 244 988
e 244 991
e 244 995
e 244 997
e 245 258
e 245 280
e 245 283
e 245 285
e 245 292
e 245 293
e 245 304
e 245 306
e 245 312
e 245 315
e 245 322
e 245 329
e 245 332
e 245 335
e 245 337
e 245 339
e 245 351
e 245 361
e 245 365
e 245 366
e 245 370
e 245 375
e 245 378
e 245 393
e 245 405
e 245 408
e 245 438
e 245 456
e 245 469
e 245 480
e 245 517
e 245 524
e 245 528
e 245 529
e 245 548
e 245 550
e 245 556
e 245 558
e 245 560
e 245 564
e 245 569
e 245 570
e 245 573
e 245 579
e 245 584
e 245 589
e 245 590
e 245 592
e 245 598
e 245 603
e 245 620
e 245 622
e 245 631
e 245 641
e 245 679
e 245 689
e 245 702
e 245 707
e 245 709
e 245 713
e 245 728
e 245 758
e 245 764
e 245 767
e 245 772
e 245 777
e 245 833
e 245 847
e 245 850
e 245 867
e 245 892
e 245 896
e 245 900
e 245 908
e 245 921
e 245 944
e 245 949
e 245 961
e 245 965
e 245 971
e 245 979
e 245 982
e 246 253
e 246 258
e 246 265
e 246 266
e 246 278
e 246 295
e 246 304
e 246 316
e 246 328
e 246 330
e 246 355
e 246 408
e 246 418
e 246 422
e 246 453
e 246 464
e 246 467
e 246 470
e 246 479
e 246 510
e 246 515
e 246 525
e 246 532
e 246 543
e 246 562
e 246 569
e 246 573
e 246 590
e 246 604
e 246 620
e 246 621
e 246 622
e 246 624
e 246 629
e 246 634
e 246 636
e 246 638
e 246 644
e 246 668
e 246 669
e 246 674
e 246 679
e 246 690
e 246 705
e 246 712
e 246 715
e 246 717
e 246 724
e 246 729
e 246 732
e 246 734
e 246 741
e 246 742
e 246 743
e 246 749
e 246 778
e 246 784
e 246 793
e 246 802
e 246 816
e 246 831
e 246 836
e 246 840
e 246 842
e 246 847
e 246 856
e 246 870
e 246 891
e 246 897
e 246 916
e 246 935
e 246 957
e 246 962
e 246 984
e 246 993
e 247 254
e 247 255
e 247 261
e 247 285
e 247 290
e 247 300
e 247 305
e 247 317
e 247 321
e 247 322
e 247 324
e 247 325
e 247 327
e 247 344
e 247 346
e 247 369
e 247 370
e 247 387
e 247 388
e 247 389
e 247 408
e 247 426
e 247 430
e 247 432
e 247 446
e 247 457
e 247 458
e 247 465
e 247 471
e 247 479
e 247 484
e 247 488
e 247 492
e 247 509
e 247 514
e 247 515
e 247 556
e 247 561
e 247 563
e 247 564
e 247 567
e 247 570
e 247 580
e 247 584
e 247 592
e 247 597
e 247 615
e 247 616
e 247 617
e 247 626
e 247 641
e 247 650
e 247 658
e 247 665
e 247 681
e 247 682
e 247 687
e 247 692
e 247 699
e 247 700
e 247 713
e 247 715
e 247 728
e 247 733
e 247 735
e 247 744
e 247 769
e 247 771
e 247 791
e 247 794
e 247 796
e 247 814
e 247 820
e 247 821
e 247 828
e 247 835
e 247 856
e 247 884
e 247 887
e 247 891
e 247 897
e 247 902
e 247 903
e 247 913
e 247 916
e 247 936
e 247 944
e 247 948
e 247 993
e 248 252
e 248 259
e 248 261
e 248 277
e 248 314
e 248 317
e 248 326
e 248 330
e 248 339
e 248 346
e 248 361
e 248 365
e 248 366
e 248 371
e 248 372
e 248 374
e 248 393
e 248 404
e 248 409
e 248 424
e 248 433
e 248 458
e 248 460
e 248 481
e 248 484
e 248 489
e 248 496
e 248 529
e 248 534
e 248 544
e 248 566
e 248 572
e 248 590
e 248 598
e 248 612
e 248 620
e 248 625
e 248 634
e 248 645
e 248 660
e 248 683
e 248 695
e 248 705
e 248 709
e 248 714
e 248 721
e 248 727
e 248 756
e 248 767
e 248 771
e 248 784
e 248 791
e 248 795
e 248 802
e 248 821
e 248 826
e 248 855
e 248 856
e 248 860
e 248 861
e 248 863
e 248 870
e 248 898
e 248 900
e 248 902
e 248 905
e 248 913
e 248 917
e 248 934
e 248 937
e 248 940
e 248 942
e 248 954
e 248 973
e 248 980
e 248 982
e 248 995
e 248 996
e 248 1000
e 249 259
e 249 263
e 249 295
e 249 299
e 249 302
e 249 309
e 249 310
e 249 312
e 249 314
e 249 324
e 249 333
e 249 334
e 249 335
e 249 353
e 249 354
e 249 356
e 249 369
e 249 371
e 249 382
e 249 404
e 249 406
e 249 414
e 249 421
e 249 425
e 249 430
e 249 434
e 249 442
e 249 445
e 249 467
e 249 475
e 249 487
e 249 504
e 249 506
e 249 531
e 249 535
e 249 536
e 249 537
e 249 543
e 249 547
e 249 549
e 249 559
e 249 579
e 249 583
e 249 594
e 249 602
e 249 603
e 249 606
e 249 619
e 249 627
e 249 631
e 249 643
e 249 651
e 249 653
e 249 684
e 249 687
e 249 699
e 249 702
e 249 721
e 249 741
e 249 745
e 249 752
e 249 755
e 249 764
e 249 771
e 249 773
e 249 790
e 249 813
e 249 814
e 249 818
e 249 830
e 249 832
e 249 834
e 249 842
e 249 848
e 249 856
e 249 878
e 249 890
e 249 891
e 249 893
e 249 899
e 249 903
e 249 904
e 249 909
e 249 917
e 249 922
e 249 929
e 249 933
e 249 947
e 249 967
e 249 969
e 249 986
e 249 998
e 250 252
e 250 256
e 250 259
e 250 269
e 250 272
e 250 297
e 250 316
e 250 321
e 250 352
e 250 357
e 250 361
e 250 380
e 250 382
e 250 403
e 250 448
e 250 451
e 250 456
e 250 462
e 250 468
e 250 469
e 250 486
e 250 488
e 250 498
e 250 515
e 250 516
e 250 536
e 250 546
e 250 571
e 250 575
e 250 582
e 250 588
e 250 596
e 250 602
e 250 603
e 250 615
e 250 655
e 250 658
e 250 659
e 250 676
e 250 679
e 250 706
e 250 708
e 250 716
e 250 718
e 250 721
e 250 744
e 250 757
e 250 771
e 250 777
e 250 782
e 250 785
e 250 791
e 250 792
e 250 800
e 250 805
e 250 808
e 250 820
e 250 824
e 250 828
e 250 834
e 250 865
e 250 877
e 250 890
e 250 896
e 250 900
e 250 913
e 250 921
e 250 947
e 250 957
e 250 971
e 250 974
