p edge 1000 18713
e 1 278
e 1 287
e 1 301
e 1 340
e 1 347
e 1 348
e 1 358
e 1 383
e 1 393
e 1 395
e 1 401
e 1 403
e 1 406
e 1 415
e 1 421
e 1 424
e 1 425
e 1 437
e 1 448
e 1 453
e 1 460
e 1 475
e 1 492
e 1 512
e 1 513
e 1 530
e 1 531
e 1 535
e 1 536
e 1 540
e 1 567
e 1 578
e 1 586
e 1 587
e 1 592
e 1 602
e 1 607
e 1 611
e 1 625
e 1 632
e 1 643
e 1 651
e 1 653
e 1 655
e 1 657
e 1 666
e 1 676
e 1 677
e 1 678
e 1 680
e 1 684
e 1 692
e 1 702
e 1 742
e 1 745
e 1 748
e 1 767
e 1 769
e 1 786
e 1 804
e 1 833
e 1 835
e 1 858
e 1 862
e 1 863
e 1 866
e 1 874
e 1 893
e 1 896
e 1 902
e 1 917
e 1 922
e 1 935
e 1 936
e 1 942
e 1 944
e 1 948
e 1 966
e 1 969
e 1 990
e 2 256
e 2 263
e 2 268
e 2 271
e 2 283
e 2 290
e 2 297
e 2 304
e 2 314
e 2 316
e 2 321
e 2 325
e 2 330
e 2 333
e 2 336
e 2 354
e 2 369
e 2 373
e 2 384
e 2 391
e 2 392
e 2 394
e 2 411
e 2 416
e 2 429
e 2 448
e 2 458
e 2 474
e 2 479
e 2 495
e 2 499
e 2 510
e 2 521
e 2 522
e 2 526
e 2 527
e 2 533
e 2 548
e 2 560
e 2 591
e 2 599
e 2 610
e 2 613
e 2 615
e 2 624
e 2 640
e 2 650
e 2 653
e 2 669
e 2 685
e 2 692
e 2 698
e 2 705
e 2 706
e 2 709
e 2 718
e 2 722
e 2 724
e 2 727
e 2 729
e 2 731
e 2 746
e 2 752
e 2 763
e 2 767
e 2 768
e 2 779
e 2 780
e 2 797
e 2 815
e 2 819
e 2 827
e 2 849
e 2 856
e 2 876
e 2 877
e 2 889
e 2 898
e 2 916
e 2 932
e 2 939
e 2 949
e 2 952
e 2 981
e 2 984
e 2 987
e 2 990
e 3 262
e 3 268
e 3 272
e 3 284
e 3 295
e 3 322
e 3 328
e 3 330
e 3 342
e 3 353
e 3 372
e 3 396
e 3 415
e 3 424
e 3 445
e 3 470
e 3 523
e 3 550
e 3 561
e 3 564
e 3 573
e 3 578
e 3 588
e 3 589
e 3 595
e 3 604
e 3 626
e 3 632
e 3 648
e 3 653
e 3 661
e 3 669
e 3 676
e 3 710
e 3 732
e 3 734
e 3 740
e 3 759
e 3 765
e 3 776
e 3 789
e 3 792
e 3 888
e 3 900
e 3 909
e 3 915
e 3 916
e 3 925
e 3 927
e 3 929
e 3 967
e 3 969
e 3 978
e 3 999
e 3 1000
e 4 264
e 4 265
e 4 266
e 4 272
e 4 277
e 4 281
e 4 301
e 4 305
e 4 318
e 4 319
e 4 325
e 4 327
e 4 336
e 4 348
e 4 368
e 4 373
e 4 384
e 4 406
e 4 433
e 4 439
e 4 445
e 4 467
e 4 479
e 4 480
e 4 517
e 4 526
e 4 528
e 4 547
e 4 554
e 4 558
e 4 561
e 4 569
e 4 576
e 4 600
e 4 615
e 4 623
e 4 624
e 4 628
e 4 646
e 4 647
e 4 652
e 4 668
e 4 671
e 4 677
e 4 686
e 4 691
e 4 694
e 4 697
e 4 705
e 4 720
e 4 729
e 4 745
e 4 748
e 4 780
e 4 784
e 4 786
e 4 806
e 4 820
e 4 837
e 4 842
e 4 855
e 4 866
e 4 884
e 4 889
e 4 899
e 4 909
e 4 914
e 4 930
e 4 934
e 4 969
e 4 974
e 4 984
e 4 993
e 4 996
e 5 258
e 5 275
e 5 286
e 5 289
e 5 294
e 5 307
e 5 319
e 5 328
e 5 332
e 5 347
e 5 352
e 5 354
e 5 359
e 5 392
e 5 404
e 5 411
e 5 414
e 5 424
e 5 444
e 5 447
e 5 485
e 5 494
e 5 502
e 5 526
e 5 527
e 5 535
e 5 545
e 5 603
e 5 610
e 5 618
e 5 632
e 5 646
e 5 676
e 5 677
e 5 681
e 5 684
e 5 685
e 5 695
e 5 718
e 5 726
e 5 730
e 5 763
e 5 767
e 5 771
e 5 781
e 5 791
e 5 794
e 5 798
e 5 802
e 5 817
e 5 822
e 5 827
e 5 834
e 5 887
e 5 895
e 5 915
e 5 969
e 5 979
e 5 981
e 5 985
e 5 988
e 5 995
e 6 252
e 6 264
e 6 279
e 6 285
e 6 291
e 6 296
e 6 302
e 6 323
e 6 345
e 6 352
e 6 359
e 6 369
e 6 385
e 6 411
e 6 451
e 6 454
e 6 472
e 6 474
e 6 477
e 6 480
e 6 485
e 6 494
e 6 511
e 6 513
e 6 522
e 6 546
e 6 548
e 6 555
e 6 567
e 6 588
e 6 595
e 6 609
e 6 616
e 6 617
e 6 623
e 6 625
e 6 626
e 6 637
e 6 651
e 6 659
e 6 670
e 6 672
e 6 673
e 6 704
e 6 705
e 6 715
e 6 719
e 6 721
e 6 722
e 6 723
e 6 731
e 6 743
e 6 756
e 6 792
e 6 806
e 6 820
e 6 821
e 6 829
e 6 835
e 6 844
e 6 861
e 6 866
e 6 877
e 6 878
e 6 892
e 6 897
e 6 899
e 6 902
e 6 910
e 6 923
e 6 932
e 6 937
e 6 939
e 6 953
e 6 958
e 6 984
e 6 989
e 7 257
e 7 268
e 7 279
e 7 280
e 7 283
e 7 299
e 7 303
e 7 328
e 7 354
e 7 356
e 7 362
e 7 372
e 7 373
e 7 377
e 7 382
e 7 399
e 7 403
e 7 445
e 7 446
e 7 465
e 7 488
e 7 497
e 7 506
e 7 507
e 7 521
e 7 528
e 7 550
e 7 553
e 7 555
e 7 562
e 7 567
e 7 592
e 7 597
e 7 603
e 7 611
e 7 617
e 7 638
e 7 640
e 7 644
e 7 650
e 7 652
e 7 657
e 7 661
e 7 685
e 7 693
e 7 709
e 7 716
e 7 730
e 7 736
e 7 737
e 7 739
e 7 779
e 7 787
e 7 802
e 7 818
e 7 821
e 7 839
e 7 847
e 7 854
e 7 858
e 7 863
e 7 875
e 7 921
e 7 922
e 7 926
e 7 935
e 7 954
e 7 958
e 7 960
e 7 964
e 7 986
e 7 990
e 8 252
e 8 255
e 8 283
e 8 297
e 8 303
e 8 309
e 8 312
e 8 318
e 8 326
e 8 330
e 8 357
e 8 361
e 8 362
e 8 385
e 8 389
e 8 401
e 8 406
e 8 413
e 8 417
e 8 419
e 8 420
e 8 428
e 8 456
e 8 464
e 8 466
e 8 471
e 8 478
e 8 479
e 8 488
e 8 493
e 8 503
e 8 512
e 8 536
e 8 538
e 8 548
e 8 550
e 8 563
e 8 564
e 8 569
e 8 571
e 8 572
e 8 578
e 8 581
e 8 593
e 8 594
e 8 609
e 8 645
e 8 653
e 8 658
e 8 661
e 8 689
e 8 705
e 8 706
e 8 709
e 8 717
e 8 721
e 8 729
e 8 737
e 8 742
e 8 756
e 8 758
e 8 760
e 8 763
e 8 770
e 8 772
e 8 775
e 8 787
e 8 790
e 8 795
e 8 805
e 8 815
e 8 824
e 8 859
e 8 861
e 8 863
e 8 866
e 8 874
e 8 887
e 8 906
e 8 912
e 8 918
e 8 922
e 8 936
e 8 942
e 8 951
e 8 960
e 8 963
e 8 968
e 8 975
e 8 984
e 9 259
e 9 264
e 9 267
e 9 272
e 9 275
e 9 289
e 9 292
e 9 323
e 9 326
e 9 329
e 9 337
e 9 366
e 9 373
e 9 398
e 9 409
e 9 413
e 9 416
e 9 434
e 9 447
e 9 450
e 9 457
e 9 461
e 9 467
e 9 474
e 9 475
e 9 476
e 9 480
e 9 495
e 9 496
e 9 500
e 9 503
e 9 506
e 9 507
e 9 526
e 9 544
e 9 549
e 9 555
e 9 561
e 9 565
e 9 566
e 9 571
e 9 600
e 9 608
e 9 614
e 9 622
e 9 628
e 9 633
e 9 637
e 9 644
e 9 647
e 9 650
e 9 655
e 9 660
e 9 662
e 9 668
e 9 678
e 9 697
e 9 709
e 9 714
e 9 717
e 9 718
e 9 735
e 9 739
e 9 742
e 9 763
e 9 769
e 9 774
e 9 784
e 9 791
e 9 793
e 9 795
e 9 804
e 9 811
e 9 828
e 9 858
e 9 862
e 9 876
e 9 879
e 9 880
e 9 911
e 9 917
e 9 921
e 9 973
e 9 978
e 9 984
e 9 988
e 9 990
e 9 992
e 9 993
e 9 998
e 10 252
e 10 263
e 10 264
e 10 270
e 10 272
e 10 278
e 10 294
e 10 298
e 10 305
e 10 331
e 10 350
e 10 351
e 10 369
e 10 379
e 10 381
e 10 384
e 10 385
e 10 391
e 10 401
e 10 422
e 10 427
e 10 467
e 10 483
e 10 492
e 10 494
e 10 497
e 10 523
e 10 529
e 10 534
e 10 537
e 10 538
e 10 555
e 10 558
e 10 560
e 10 562
e 10 564
e 10 572
e 10 582
e 10 586
e 10 589
e 10 591
e 10 595
e 10 604
e 10 612
e 10 620
e 10 630
e 10 638
e 10 656
e 10 661
e 10 674
e 10 689
e 10 719
e 10 721
e 10 728
e 10 746
e 10 753
e 10 767
e 10 777
e 10 783
e 10 787
e 10 801
e 10 804
e 10 816
e 10 871
e 10 878
e 10 893
e 10 905
e 10 913
e 10 936
e 10 938
e 10 967
e 10 977
e 10 983
e 10 996
e 11 268
e 11 273
e 11 294
e 11 300
e 11 301
e 11 308
e 11 317
e 11 330
e 11 333
e 11 335
e 11 346
e 11 380
e 11 391
e 11 396
e 11 405
e 11 418
e 11 422
e 11 478
e 11 502
e 11 506
e 11 525
e 11 550
e 11 554
e 11 576
e 11 580
e 11 611
e 11 613
e 11 621
e 11 641
e 11 644
e 11 650
e 11 653
e 11 662
e 11 664
e 11 684
e 11 696
e 11 700
e 11 701
e 11 719
e 11 723
e 11 748
e 11 755
e 11 758
e 11 763
e 11 773
e 11 777
e 11 780
e 11 781
e 11 792
e 11 794
e 11 797
e 11 803
e 11 818
e 11 826
e 11 835
e 11 843
e 11 847
e 11 866
e 11 875
e 11 878
e 11 883
e 11 895
e 11 898
e 11 909
e 11 910
e 11 914
e 11 936
e 11 948
e 11 966
e 11 967
e 11 978
e 11 986
e 12 254
e 12 255
e 12 280
e 12 288
e 12 289
e 12 317
e 12 329
e 12 349
e 12 364
e 12 376
e 12 379
e 12 388
e 12 391
e 12 401
e 12 436
e 12 445
e 12 450
e 12 454
e 12 457
e 12 473
e 12 475
e 12 488
e 12 500
e 12 507
e 12 514
e 12 516
e 12 517
e 12 518
e 12 525
e 12 527
e 12 554
e 12 555
e 12 560
e 12 562
e 12 569
e 12 572
e 12 590
e 12 595
e 12 597
e 12 637
e 12 646
e 12 653
e 12 665
e 12 674
e 12 677
e 12 683
e 12 686
e 12 687
e 12 696
e 12 750
e 12 758
e 12 760
e 12 761
e 12 765
e 12 768
e 12 770
e 12 777
e 12 781
e 12 796
e 12 811
e 12 814
e 12 817
e 12 820
e 12 823
e 12 828
e 12 848
e 12 864
e 12 875
e 12 888
e 12 895
e 12 897
e 12 940
e 12 941
e 12 944
e 12 971
e 12 974
e 12 980
e 12 989
e 12 991
e 12 992
e 12 998
e 13 257
e 13 264
e 13 315
e 13 320
e 13 323
e 13 331
e 13 335
e 13 339
e 13 348
e 13 350
e 13 395
e 13 401
e 13 406
e 13 412
e 13 430
e 13 438
e 13 444
e 13 481
e 13 516
e 13 520
e 13 522
e 13 529
e 13 542
e 13 543
e 13 554
e 13 571
e 13 572
e 13 586
e 13 631
e 13 634
e 13 642
e 13 644
e 13 663
e 13 665
e 13 670
e 13 672
e 13 677
e 13 684
e 13 690
e 13 691
e 13 698
e 13 699
e 13 702
e 13 708
e 13 710
e 13 712
e 13 725
e 13 737
e 13 738
e 13 754
e 13 761
e 13 770
e 13 774
e 13 780
e 13 784
e 13 785
e 13 788
e 13 808
e 13 813
e 13 814
e 13 821
e 13 843
e 13 844
e 13 845
e 13 852
e 13 867
e 13 892
e 13 897
e 13 901
e 13 922
e 13 940
e 13 945
e 13 958
e 13 961
e 13 971
e 13 977
e 13 983
e 13 988
e 13 992
e 14 252
e 14 257
e 14 267
e 14 291
e 14 300
e 14 308
e 14 311
e 14 314
e 14 318
e 14 360
e 14 364
e 14 372
e 14 374
e 14 392
e 14 410
e 14 421
e 14 442
e 14 453
e 14 463
e 14 465
e 14 467
e 14 477
e 14 485
e 14 492
e 14 509
e 14 519
e 14 521
e 14 525
e 14 532
e 14 537
e 14 551
e 14 562
e 14 565
e 14 577
e 14 601
e 14 602
e 14 606
e 14 617
e 14 631
e 14 632
e 14 636
e 14 646
e 14 647
e 14 662
e 14 668
e 14 675
e 14 683
e 14 695
e 14 714
e 14 719
e 14 723
e 14 737
e 14 743
e 14 747
e 14 749
e 14 752
e 14 753
e 14 783
e 14 793
e 14 824
e 14 840
e 14 843
e 14 873
e 14 874
e 14 879
e 14 891
e 14 899
e 14 900
e 14 928
e 14 951
e 14 956
e 14 972
e 14 983
e 14 985
e 14 996
e 15 253
e 15 257
e 15 259
e 15 264
e 15 279
e 15 293
e 15 298
e 15 303
e 15 345
e 15 361
e 15 362
e 15 364
e 15 366
e 15 375
e 15 394
e 15 430
e 15 446
e 15 449
e 15 454
e 15 457
e 15 482
e 15 485
e 15 489
e 15 491
e 15 495
e 15 528
e 15 533
e 15 535
e 15 539
e 15 556
e 15 559
e 15 560
e 15 567
e 15 580
e 15 602
e 15 610
e 15 626
e 15 633
e 15 639
e 15 642
e 15 643
e 15 663
e 15 689
e 15 694
e 15 713
e 15 716
e 15 725
e 15 753
e 15 772
e 15 774
e 15 787
e 15 791
e 15 804
e 15 813
e 15 823
e 15 850
e 15 861
e 15 870
e 15 892
e 15 894
e 15 897
e 15 899
e 15 903
e 15 914
e 15 936
e 15 940
e 15 973
e 15 978
e 16 265
e 16 270
e 16 272
e 16 276
e 16 297
e 16 299
e 16 313
e 16 314
e 16 338
e 16 346
e 16 364
e 16 376
e 16 431
e 16 433
e 16 451
e 16 463
e 16 467
e 16 486
e 16 498
e 16 519
e 16 523
e 16 559
e 16 561
e 16 587
e 16 604
e 16 621
e 16 634
e 16 637
e 16 651
e 16 654
e 16 663
e 16 678
e 16 682
e 16 690
e 16 713
e 16 718
e 16 726
e 16 735
e 16 740
e 16 765
e 16 773
e 16 782
e 16 800
e 16 802
e 16 805
e 16 818
e 16 828
e 16 832
e 16 838
e 16 841
e 16 856
e 16 873
e 16 891
e 16 894
e 16 905
e 16 919
e 16 931
e 16 936
e 16 940
e 16 945
e 16 949
e 16 950
e 16 952
e 16 961
e 16 964
e 16 967
e 16 970
e 17 255
e 17 259
e 17 266
e 17 268
e 17 276
e 17 283
e 17 295
e 17 299
e 17 302
e 17 319
e 17 326
e 17 331
e 17 338
e 17 349
e 17 375
e 17 404
e 17 405
e 17 414
e 17 432
e 17 436
e 17 446
e 17 447
e 17 451
e 17 453
e 17 455
e 17 457
e 17 458
e 17 468
e 17 488
e 17 491
e 17 502
e 17 507
e 17 513
e 17 527
e 17 530
e 17 568
e 17 587
e 17 595
e 17 603
e 17 606
e 17 621
e 17 624
e 17 642
e 17 643
e 17 649
e 17 662
e 17 666
e 17 673
e 17 707
e 17 708
e 17 709
e 17 716
e 17 719
e 17 738
e 17 746
e 17 747
e 17 792
e 17 796
e 17 802
e 17 810
e 17 812
e 17 830
e 17 848
e 17 851
e 17 857
e 17 859
e 17 872
e 17 887
e 17 893
e 17 900
e 17 921
e 17 923
e 17 948
e 17 950
e 17 952
e 17 953
e 17 957
e 17 964
e 17 973
e 17 981
e 17 988
e 17 989
e 17 994
e 18 258
e 18 264
e 18 265
e 18 274
e 18 280
e 18 281
e 18 319
e 18 327
e 18 329
e 18 363
e 18 390
e 18 409
e 18 439
e 18 447
e 18 454
e 18 464
e 18 465
e 18 466
e 18 478
e 18 498
e 18 516
e 18 528
e 18 536
e 18 550
e 18 554
e 18 560
e 18 587
e 18 590
e 18 595
e 18 607
e 18 621
e 18 626
e 18 629
e 18 631
e 18 637
e 18 638
e 18 640
e 18 643
e 18 645
e 18 656
e 18 669
e 18 678
e 18 687
e 18 695
e 18 699
e 18 702
e 18 707
e 18 753
e 18 756
e 18 780
e 18 782
e 18 803
e 18 814
e 18 832
e 18 847
e 18 849
e 18 852
e 18 854
e 18 856
e 18 857
e 18 859
e 18 860
e 18 883
e 18 887
e 18 888
e 18 889
e 18 897
e 18 906
e 18 907
e 18 913
e 18 930
e 18 946
e 18 947
e 18 959
e 18 965
e 18 975
e 18 982
e 18 988
e 18 993
e 19 277
e 19 297
e 19 302
e 19 318
e 19 331
e 19 334
e 19 336
e 19 339
e 19 355
e 19 375
e 19 385
e 19 387
e 19 389
e 19 400
e 19 401
e 19 405
e 19 413
e 19 428
e 19 434
e 19 442
e 19 464
e 19 476
e 19 494
e 19 544
e 19 550
e 19 553
e 19 558
e 19 568
e 19 589
e 19 593
e 19 605
e 19 609
e 19 611
e 19 627
e 19 651
e 19 662
e 19 668
e 19 669
e 19 688
e 19 695
e 19 696
e 19 705
e 19 722
e 19 729
e 19 734
e 19 751
e 19 759
e 19 763
e 19 773
e 19 790
e 19 797
e 19 814
e 19 847
e 19 860
e 19 872
e 19 876
e 19 880
e 19 881
e 19 888
e 19 901
e 19 918
e 19 927
e 19 938
e 19 941
e 19 942
e 19 958
e 20 253
e 20 279
e 20 286
e 20 291
e 20 295
e 20 326
e 20 351
e 20 352
e 20 356
e 20 368
e 20 383
e 20 398
e 20 399
e 20 401
e 20 419
e 20 424
e 20 425
e 20 427
e 20 439
e 20 455
e 20 471
e 20 479
e 20 499
e 20 512
e 20 516
e 20 519
e 20 530
e 20 593
e 20 608
e 20 617
e 20 630
e 20 638
e 20 640
e 20 642
e 20 643
e 20 660
e 20 690
e 20 691
e 20 694
e 20 701
e 20 702
e 20 708
e 20 712
e 20 721
e 20 731
e 20 739
e 20 753
e 20 779
e 20 785
e 20 788
e 20 795
e 20 799
e 20 808
e 20 811
e 20 828
e 20 830
e 20 835
e 20 836
e 20 847
e 20 854
e 20 855
e 20 868
e 20 874
e 20 885
e 20 886
e 20 894
e 20 895
e 20 900
e 20 911
e 20 920
e 20 922
e 20 924
e 20 936
e 20 950
e 20 957
e 20 959
e 20 962
e 20 976
e 20 977
e 20 979
e 20 986
e 21 255
e 21 266
e 21 290
e 21 293
e 21 304
e 21 311
e 21 340
e 21 346
e 21 354
e 21 359
e 21 365
e 21 369
e 21 375
e 21 379
e 21 390
e 21 391
e 21 401
e 21 411
e 21 427
e 21 434
e 21 437
e 21 448
e 21 454
e 21 464
e 21 465
e 21 467
e 21 480
e 21 481
e 21 482
e 21 486
e 21 489
e 21 492
e 21 502
e 21 509
e 21 516
e 21 520
e 21 526
e 21 550
e 21 558
e 21 565
e 21 576
e 21 590
e 21 592
e 21 611
e 21 612
e 21 615
e 21 622
e 21 627
e 21 630
e 21 674
e 21 679
e 21 680
e 21 690
e 21 709
e 21 716
e 21 725
e 21 741
e 21 742
e 21 753
e 21 758
e 21 776
e 21 783
e 21 806
e 21 817
e 21 829
e 21 841
e 21 848
e 21 852
e 21 856
e 21 870
e 21 878
e 21 885
e 21 893
e 21 895
e 21 916
e 21 977
e 21 994
e 21 998
e 22 269
e 22 292
e 22 293
e 22 298
e 22 301
e 22 349
e 22 365
e 22 371
e 22 375
e 22 383
e 22 389
e 22 400
e 22 403
e 22 409
e 22 418
e 22 425
e 22 432
e 22 433
e 22 446
e 22 459
e 22 467
e 22 468
e 22 476
e 22 489
e 22 504
e 22 563
e 22 575
e 22 581
e 22 585
e 22 597
e 22 606
e 22 630
e 22 649
e 22 673
e 22 679
e 22 686
e 22 687
e 22 690
e 22 691
e 22 705
e 22 706
e 22 711
e 22 714
e 22 742
e 22 743
e 22 755
e 22 757
e 22 764
e 22 766
e 22 771
e 22 772
e 22 780
e 22 783
e 22 798
e 22 800
e 22 814
e 22 850
e 22 851
e 22 855
e 22 877
e 22 880
e 22 883
e 22 885
e 22 913
e 22 921
e 22 950
e 22 961
e 22 963
e 22 968
e 22 973
e 22 980
e 23 272
e 23 277
e 23 278
e 23 281
e 23 311
e 23 317
e 23 328
e 23 335
e 23 348
e 23 356
e 23 357
e 23 365
e 23 378
e 23 397
e 23 415
e 23 437
e 23 452
e 23 470
e 23 504
e 23 509
e 23 540
e 23 549
e 23 594
e 23 595
e 23 613
e 23 615
e 23 624
e 23 647
e 23 669
e 23 699
e 23 707
e 23 712
e 23 714
e 23 715
e 23 720
e 23 731
e 23 737
e 23 741
e 23 750
e 23 759
e 23 781
e 23 789
e 23 800
e 23 801
e 23 811
e 23 814
e 23 826
e 23 830
e 23 857
e 23 864
e 23 866
e 23 876
e 23 877
e 23 884
e 23 886
e 23 898
e 23 929
e 23 943
e 23 959
e 23 965
e 24 252
e 24 256
e 24 259
e 24 261
e 24 269
e 24 272
e 24 274
e 24 278
e 24 287
e 24 294
e 24 322
e 24 336
e 24 344
e 24 356
e 24 365
e 24 379
e 24 382
e 24 398
e 24 401
e 24 403
e 24 405
e 24 408
e 24 410
e 24 422
e 24 432
e 24 440
e 24 443
e 24 445
e 24 448
e 24 458
e 24 465
e 24 476
e 24 488
e 24 508
e 24 529
e 24 539
e 24 558
e 24 562
e 24 572
e 24 576
e 24 582
e 24 584
e 24 588
e 24 600
e 24 611
e 24 641
e 24 642
e 24 648
e 24 659
e 24 660
e 24 677
e 24 706
e 24 714
e 24 724
e 24 725
e 24 732
e 24 733
e 24 734
e 24 746
e 24 758
e 24 773
e 24 785
e 24 786
e 24 788
e 24 803
e 24 847
e 24 857
e 24 886
e 24 902
e 24 914
e 24 915
e 24 926
e 24 934
e 24 938
e 24 962
e 24 965
e 24 989
e 24 999
e 25 251
e 25 260
e 25 290
e 25 306
e 25 315
e 25 340
e 25 361
e 25 377
e 25 398
e 25 437
e 25 450
e 25 453
e 25 458
e 25 471
e 25 481
e 25 487
e 25 508
e 25 511
e 25 515
e 25 517
e 25 576
e 25 585
e 25 601
e 25 609
e 25 610
e 25 614
e 25 621
e 25 634
e 25 644
e 25 654
e 25 655
e 25 660
e 25 671
e 25 682
e 25 685
e 25 689
e 25 694
e 25 700
e 25 713
e 25 714
e 25 725
e 25 775
e 25 777
e 25 786
e 25 791
e 25 792
e 25 837
e 25 840
e 25 843
e 25 845
e 25 860
e 25 863
e 25 875
e 25 879
e 25 892
e 25 894
e 25 897
e 25 904
e 25 917
e 25 923
e 25 929
e 25 933
e 25 941
e 25 948
e 25 955
e 25 956
e 25 979
e 25 995
e 25 997
e 25 998
e 26 266
e 26 285
e 26 293
e 26 298
e 26 300
e 26 308
e 26 309
e 26 334
e 26 352
e 26 354
e 26 365
e 26 370
e 26 376
e 26 383
e 26 408
e 26 413
e 26 417
e 26 443
e 26 446
e 26 448
e 26 473
e 26 478
e 26 484
e 26 488
e 26 520
e 26 525
e 26 527
e 26 536
e 26 539
e 26 575
e 26 586
e 26 602
e 26 613
e 26 614
e 26 639
e 26 650
e 26 651
e 26 659
e 26 663
e 26 670
e 26 674
e 26 679
e 26 684
e 26 690
e 26 691
e 26 701
e 26 705
e 26 713
e 26 726
e 26 729
e 26 731
e 26 747
e 26 767
e 26 772
e 26 780
e 26 784
e 26 796
e 26 802
e 26 805
e 26 808
e 26 813
e 26 816
e 26 821
e 26 831
e 26 854
e 26 856
e 26 861
e 26 865
e 26 866
e 26 878
e 26 881
e 26 882
e 26 883
e 26 889
e 26 898
e 26 910
e 26 912
e 26 916
e 26 938
e 26 953
e 26 969
e 26 972
e 26 975
e 26 989
e 26 991
e 27 255
e 27 259
e 27 279
e 27 294
e 27 301
e 27 308
e 27 330
e 27 331
e 27 333
e 27 336
e 27 339
e 27 346
e 27 352
e 27 366
e 27 371
e 27 375
e 27 379
e 27 380
e 27 394
e 27 397
e 27 398
e 27 417
e 27 427
e 27 431
e 27 438
e 27 455
e 27 456
e 27 485
e 27 493
e 27 500
e 27 515
e 27 536
e 27 572
e 27 580
e 27 581
e 27 590
e 27 595
e 27 601
e 27 603
e 27 616
e 27 617
e 27 624
e 27 636
e 27 655
e 27 666
e 27 697
e 27 704
e 27 719
e 27 733
e 27 756
e 27 759
e 27 761
e 27 788
e 27 798
e 27 799
e 27 831
e 27 834
e 27 838
e 27 843
e 27 851
e 27 858
e 27 865
e 27 877
e 27 880
e 27 885
e 27 888
e 27 895
e 27 901
e 27 907
e 27 909
e 27 925
e 27 930
e 27 940
e 27 953
e 27 967
e 27 969
e 28 265
e 28 276
e 28 281
e 28 286
e 28 292
e 28 294
e 28 304
e 28 318
e 28 335
e 28 346
e 28 353
e 28 357
e 28 369
e 28 373
e 28 391
e 28 415
e 28 417
e 28 431
e 28 442
e 28 452
e 28 472
e 28 487
e 28 488
e 28 499
e 28 506
e 28 530
e 28 541
e 28 561
e 28 565
e 28 570
e 28 580
e 28 592
e 28 594
e 28 604
e 28 608
e 28 610
e 28 617
e 28 623
e 28 625
e 28 645
e 28 648
e 28 653
e 28 658
e 28 697
e 28 705
e 28 708
e 28 715
e 28 716
e 28 729
e 28 782
e 28 808
e 28 813
e 28 819
e 28 837
e 28 871
e 28 921
e 28 939
e 28 942
e 28 950
e 28 984
e 28 994
e 28 997
e 29 255
e 29 260
e 29 264
e 29 272
e 29 277
e 29 279
e 29 285
e 29 287
e 29 288
e 29 293
e 29 301
e 29 304
e 29 314
e 29 329
e 29 336
e 29 340
e 29 343
e 29 344
e 29 345
e 29 364
e 29 369
e 29 381
e 29 392
e 29 398
e 29 399
e 29 407
e 29 423
e 29 431
e 29 435
e 29 438
e 29 445
e 29 464
e 29 466
e 29 488
e 29 489
e 29 495
e 29 499
e 29 513
e 29 540
e 29 542
e 29 546
e 29 550
e 29 558
e 29 559
e 29 569
e 29 573
e 29 579
e 29 605
e 29 612
e 29 636
e 29 644
e 29 651
e 29 655
e 29 663
e 29 671
e 29 681
e 29 690
e 29 696
e 29 697
e 29 704
e 29 708
e 29 715
e 29 717
e 29 742
e 29 744
e 29 746
e 29 750
e 29 753
e 29 762
e 29 769
e 29 781
e 29 788
e 29 792
e 29 820
e 29 824
e 29 829
e 29 837
e 29 863
e 29 890
e 29 891
e 29 892
e 29 898
e 29 913
e 29 914
e 29 917
e 29 922
e 29 923
e 29 930
e 29 938
e 29 939
e 29 941
e 29 957
e 29 975
e 29 976
e 29 981
e 29 983
e 29 996
e 30 259
e 30 288
e 30 303
e 30 311
e 30 317
e 30 336
e 30 337
e 30 341
e 30 342
e 30 350
e 30 353
e 30 362
e 30 377
e 30 386
e 30 398
e 30 410
e 30 414
e 30 418
e 30 430
e 30 439
e 30 446
e 30 458
e 30 466
e 30 482
e 30 487
e 30 496
e 30 508
e 30 522
e 30 529
e 30 536
e 30 540
e 30 542
e 30 545
e 30 555
e 30 558
e 30 570
e 30 578
e 30 584
e 30 597
e 30 602
e 30 607
e 30 623
e 30 627
e 30 652
e 30 654
e 30 659
e 30 683
e 30 709
e 30 730
e 30 732
e 30 734
e 30 735
e 30 739
e 30 756
e 30 768
e 30 775
e 30 782
e 30 783
e 30 784
e 30 790
e 30 801
e 30 810
e 30 816
e 30 821
e 30 822
e 30 825
e 30 834
e 30 838
e 30 845
e 30 849
e 30 850
e 30 861
e 30 862
e 30 896
e 30 897
e 30 909
e 30 915
e 30 921
e 30 941
e 30 953
e 30 961
e 30 972
e 30 981
e 31 253
e 31 254
e 31 264
e 31 272
e 31 276
e 31 277
e 31 301
e 31 302
e 31 326
e 31 329
e 31 348
e 31 350
e 31 352
e 31 363
e 31 368
e 31 371
e 31 373
e 31 392
e 31 393
e 31 395
e 31 412
e 31 428
e 31 430
e 31 432
e 31 434
e 31 435
e 31 464
e 31 496
e 31 514
e 31 520
e 31 528
e 31 553
e 31 554
e 31 555
e 31 562
e 31 569
e 31 586
e 31 610
e 31 616
e 31 617
e 31 618
e 31 619
e 31 630
e 31 639
e 31 648
e 31 666
e 31 674
e 31 680
e 31 686
e 31 698
e 31 707
e 31 713
e 31 714
e 31 715
e 31 717
e 31 720
e 31 739
e 31 746
e 31 748
e 31 757
e 31 759
e 31 769
e 31 787
e 31 811
e 31 813
e 31 825
e 31 832
e 31 834
e 31 836
e 31 841
e 31 846
e 31 859
e 31 873
e 31 883
e 31 885
e 31 888
e 31 896
e 31 904
e 31 930
e 31 933
e 31 934
e 31 948
e 31 955
e 31 956
e 31 957
e 31 962
e 31 971
e 31 972
e 31 979
e 31 988
e 31 996
e 32 257
e 32 261
e 32 276
e 32 300
e 32 313
e 32 317
e 32 327
e 32 328
e 32 339
e 32 340
e 32 365
e 32 382
e 32 409
e 32 430
e 32 440
e 32 450
e 32 470
e 32 473
e 32 478
e 32 493
e 32 498
e 32 508
e 32 516
e 32 554
e 32 560
e 32 585
e 32 594
e 32 610
e 32 622
e 32 648
e 32 650
e 32 655
e 32 668
e 32 688
e 32 699
e 32 709
e 32 712
e 32 713
e 32 735
e 32 749
e 32 751
e 32 755
e 32 758
e 32 762
e 32 766
e 32 771
e 32 773
e 32 786
e 32 791
e 32 807
e 32 814
e 32 843
e 32 855
e 32 857
e 32 858
e 32 870
e 32 874
e 32 884
e 32 895
e 32 907
e 32 914
e 32 916
e 32 921
e 32 925
e 32 940
e 32 965
e 32 969
e 32 981
e 32 982
e 32 988
e 32 998
e 32 1000
e 33 275
e 33 278
e 33 285
e 33 296
e 33 299
e 33 307
e 33 311
e 33 327
e 33 335
e 33 345
e 33 353
e 33 358
e 33 360
e 33 366
e 33 371
e 33 375
e 33 378
e 33 384
e 33 405
e 33 408
e 33 409
e 33 423
e 33 426
e 33 433
e 33 445
e 33 452
e 33 459
e 33 469
e 33 473
e 33 477
e 33 483
e 33 486
e 33 488
e 33 489
e 33 490
e 33 500
e 33 526
e 33 560
e 33 570
e 33 580
e 33 581
e 33 598
e 33 600
e 33 613
e 33 624
e 33 630
e 33 631
e 33 648
e 33 651
e 33 652
e 33 663
e 33 670
e 33 700
e 33 709
e 33 724
e 33 740
e 33 741
e 33 761
e 33 762
e 33 765
e 33 767
e 33 771
e 33 809
e 33 812
e 33 832
e 33 859
e 33 861
e 33 863
e 33 867
e 33 876
e 33 892
e 33 901
e 33 911
e 33 922
e 33 942
e 33 944
e 33 965
e 33 984
e 34 253
e 34 261
e 34 266
e 34 267
e 34 272
e 34 273
e 34 277
e 34 278
e 34 281
e 34 284
e 34 292
e 34 324
e 34 330
e 34 368
e 34 372
e 34 375
e 34 385
e 34 394
e 34 408
e 34 410
e 34 413
e 34 421
e 34 428
e 34 436
e 34 447
e 34 454
e 34 478
e 34 494
e 34 495
e 34 496
e 34 533
e 34 538
e 34 545
e 34 552
e 34 560
e 34 563
e 34 573
e 34 615
e 34 621
e 34 623
e 34 626
e 34 634
e 34 648
e 34 654
e 34 660
e 34 667
e 34 673
e 34 695
e 34 702
e 34 708
e 34 710
e 34 719
e 34 722
e 34 731
e 34 742
e 34 760
e 34 768
e 34 782
e 34 788
e 34 801
e 34 804
e 34 808
e 34 826
e 34 833
e 34 847
e 34 849
e 34 857
e 34 861
e 34 865
e 34 874
e 34 875
e 34 876
e 34 878
e 34 879
e 34 894
e 34 908
e 34 911
e 34 914
e 34 922
e 34 930
e 34 940
e 34 967
e 34 988
e 35 251
e 35 254
e 35 260
e 35 265
e 35 278
e 35 280
e 35 284
e 35 293
e 35 311
e 35 318
e 35 326
e 35 346
e 35 350
e 35 359
e 35 369
e 35 374
e 35 378
e 35 382
e 35 385
e 35 392
e 35 403
e 35 406
e 35 421
e 35 431
e 35 432
e 35 444
e 35 445
e 35 456
e 35 468
e 35 492
e 35 505
e 35 514
e 35 531
e 35 537
e 35 540
e 35 545
e 35 576
e 35 592
e 35 607
e 35 620
e 35 625
e 35 634
e 35 642
e 35 647
e 35 648
e 35 652
e 35 659
e 35 663
e 35 670
e 35 673
e 35 675
e 35 679
e 35 687
e 35 700
e 35 705
e 35 710
e 35 712
e 35 716
e 35 721
e 35 722
e 35 733
e 35 738
e 35 747
e 35 750
e 35 757
e 35 760
e 35 784
e 35 790
e 35 795
e 35 800
e 35 813
e 35 820
e 35 825
e 35 857
e 35 858
e 35 868
e 35 869
e 35 873
e 35 876
e 35 878
e 35 882
e 35 894
e 35 957
e 35 964
e 35 966
e 35 986
e 36 265
e 36 266
e 36 267
e 36 268
e 36 269
e 36 270
e 36 271
e 36 276
e 36 300
e 36 327
e 36 338
e 36 341
e 36 354
e 36 356
e 36 362
e 36 363
e 36 376
e 36 381
e 36 383
e 36 393
e 36 397
e 36 398
e 36 399
e 36 416
e 36 426
e 36 439
e 36 442
e 36 456
e 36 492
e 36 505
e 36 519
e 36 552
e 36 557
e 36 566
e 36 569
e 36 575
e 36 576
e 36 599
e 36 604
e 36 616
e 36 632
e 36 642
e 36 650
e 36 673
e 36 676
e 36 688
e 36 694
e 36 695
e 36 701
e 36 727
e 36 784
e 36 786
e 36 795
e 36 816
e 36 829
e 36 841
e 36 846
e 36 858
e 36 866
e 36 870
e 36 879
e 36 881
e 36 882
e 36 893
e 36 894
e 36 895
e 36 900
e 36 903
e 36 921
e 36 933
e 36 948
e 36 950
e 36 968
e 36 969
e 36 973
e 36 991
e 36 992
e 37 261
e 37 269
e 37 270
e 37 315
e 37 327
e 37 328
e 37 338
e 37 356
e 37 359
e 37 365
e 37 367
e 37 372
e 37 378
e 37 387
e 37 399
e 37 405
e 37 418
e 37 436
e 37 445
e 37 451
e 37 457
e 37 462
e 37 463
e 37 467
e 37 468
e 37 482
e 37 494
e 37 504
e 37 506
e 37 525
e 37 531
e 37 532
e 37 536
e 37 556
e 37 558
e 37 583
e 37 591
e 37 630
e 37 650
e 37 663
e 37 664
e 37 690
e 37 707
e 37 728
e 37 729
e 37 751
e 37 754
e 37 760
e 37 765
e 37 766
e 37 767
e 37 768
e 37 770
e 37 780
e 37 787
e 37 791
e 37 793
e 37 798
e 37 814
e 37 815
e 37 822
e 37 873
e 37 890
e 37 899
e 37 911
e 37 916
e 37 919
e 37 923
e 37 924
e 37 927
e 37 950
e 37 953
e 37 989
e 37 995
e 38 252
e 38 253
e 38 254
e 38 256
e 38 259
e 38 279
e 38 294
e 38 305
e 38 306
e 38 308
e 38 315
e 38 328
e 38 332
e 38 333
e 38 359
e 38 363
e 38 365
e 38 374
e 38 384
e 38 392
e 38 395
e 38 403
e 38 407
e 38 411
e 38 417
e 38 422
e 38 440
e 38 453
e 38 456
e 38 463
e 38 467
e 38 476
e 38 479
e 38 483
e 38 486
e 38 493
e 38 494
e 38 497
e 38 518
e 38 522
e 38 524
e 38 528
e 38 529
e 38 545
e 38 555
e 38 561
e 38 567
e 38 571
e 38 575
e 38 583
e 38 589
e 38 591
e 38 630
e 38 635
e 38 647
e 38 651
e 38 661
e 38 677
e 38 679
e 38 696
e 38 699
e 38 725
e 38 768
e 38 776
e 38 779
e 38 789
e 38 797
e 38 806
e 38 810
e 38 823
e 38 846
e 38 850
e 38 887
e 38 893
e 38 909
e 38 916
e 38 939
e 38 947
e 38 952
e 38 958
e 38 969
e 38 996
e 39 256
e 39 280
e 39 286
e 39 302
e 39 306
e 39 353
e 39 355
e 39 358
e 39 375
e 39 386
e 39 388
e 39 391
e 39 393
e 39 419
e 39 424
e 39 425
e 39 435
e 39 446
e 39 469
e 39 473
e 39 479
e 39 490
e 39 491
e 39 503
e 39 506
e 39 511
e 39 524
e 39 555
e 39 561
e 39 562
e 39 564
e 39 567
e 39 568
e 39 570
e 39 571
e 39 579
e 39 590
e 39 597
e 39 599
e 39 610
e 39 618
e 39 624
e 39 636
e 39 643
e 39 644
e 39 656
e 39 699
e 39 700
e 39 701
e 39 703
e 39 705
e 39 727
e 39 728
e 39 732
e 39 733
e 39 750
e 39 754
e 39 756
e 39 758
e 39 770
e 39 779
e 39 792
e 39 799
e 39 807
e 39 812
e 39 814
e 39 816
e 39 827
e 39 838
e 39 840
e 39 887
e 39 897
e 39 913
e 39 935
e 39 943
e 39 952
e 39 967
e 39 994
e 40 267
e 40 270
e 40 272
e 40 273
e 40 277
e 40 279
e 40 288
e 40 302
e 40 304
e 40 305
e 40 306
e 40 309
e 40 323
e 40 375
e 40 376
e 40 385
e 40 390
e 40 396
e 40 397
e 40 400
e 40 405
e 40 414
e 40 431
e 40 442
e 40 446
e 40 450
e 40 460
e 40 463
e 40 486
e 40 505
e 40 517
e 40 528
e 40 537
e 40 539
e 40 560
e 40 569
e 40 570
e 40 572
e 40 573
e 40 577
e 40 583
e 40 584
e 40 589
e 40 599
e 40 616
e 40 640
e 40 644
e 40 645
e 40 650
e 40 653
e 40 654
e 40 686
e 40 689
e 40 701
e 40 709
e 40 716
e 40 766
e 40 773
e 40 776
e 40 794
e 40 796
e 40 799
e 40 803
e 40 828
e 40 843
e 40 856
e 40 881
e 40 900
e 40 919
e 40 924
e 40 925
e 40 926
e 40 933
e 40 938
e 40 940
e 40 959
e 40 964
e 40 968
e 40 987
e 40 988
e 41 257
e 41 272
e 41 274
e 41 292
e 41 309
e 41 314
e 41 317
e 41 321
e 41 330
e 41 331
e 41 339
e 41 345
e 41 347
e 41 361
e 41 365
e 41 373
e 41 374
e 41 378
e 41 398
e 41 412
e 41 419
e 41 437
e 41 439
e 41 445
e 41 478
e 41 483
e 41 487
e 41 491
e 41 523
e 41 528
e 41 533
e 41 541
e 41 595
e 41 597
e 41 599
e 41 606
e 41 614
e 41 631
e 41 650
e 41 654
e 41 670
e 41 683
e 41 689
e 41 701
e 41 705
e 41 718
e 41 720
e 41 721
e 41 723
e 41 724
e 41 735
e 41 737
e 41 738
e 41 746
e 41 754
e 41 766
e 41 769
e 41 774
e 41 779
e 41 793
e 41 829
e 41 842
e 41 856
e 41 874
e 41 881
e 41 886
e 41 939
e 41 979
e 41 992
e 42 253
e 42 257
e 42 277
e 42 281
e 42 288
e 42 294
e 42 295
e 42 306
e 42 312
e 42 319
e 42 332
e 42 355
e 42 377
e 42 386
e 42 387
e 42 389
e 42 390
e 42 395
e 42 430
e 42 433
e 42 440
e 42 446
e 42 449
e 42 467
e 42 468
e 42 469
e 42 472
e 42 481
e 42 486
e 42 493
e 42 514
e 42 538
e 42 545
e 42 554
e 42 560
e 42 568
e 42 577
e 42 578
e 42 583
e 42 592
e 42 595
e 42 614
e 42 621
e 42 627
e 42 652
e 42 689
e 42 706
e 42 715
e 42 727
e 42 793
e 42 804
e 42 808
e 42 830
e 42 848
e 42 860
e 42 861
e 42 869
e 42 871
e 42 873
e 42 890
e 42 907
e 42 908
e 42 922
e 42 939
e 42 957
e 42 959
e 42 970
e 42 986
e 42 988
e 42 993
e 43 256
e 43 262
e 43 264
e 43 284
e 43 294
e 43 299
e 43 302
e 43 324
e 43 325
e 43 328
e 43 330
e 43 333
e 43 345
e 43 348
e 43 364
e 43 366
e 43 382
e 43 397
e 43 424
e 43 437
e 43 450
e 43 456
e 43 469
e 43 487
e 43 489
e 43 507
e 43 508
e 43 509
e 43 517
e 43 543
e 43 544
e 43 555
e 43 561
e 43 578
e 43 599
e 43 620
e 43 627
e 43 665
e 43 677
e 43 679
e 43 681
e 43 682
e 43 748
e 43 752
e 43 753
e 43 756
e 43 769
e 43 772
e 43 775
e 43 779
e 43 806
e 43 809
e 43 820
e 43 824
e 43 835
e 43 842
e 43 851
e 43 864
e 43 865
e 43 881
e 43 882
e 43 889
e 43 900
e 43 917
e 43 939
e 43 945
e 43 955
e 43 964
e 43 966
e 43 967
e 43 969
e 43 994
e 44 283
e 44 284
e 44 286
e 44 291
e 44 298
e 44 302
e 44 305
e 44 308
e 44 325
e 44 337
e 44 339
e 44 342
e 44 349
e 44 359
e 44 361
e 44 363
e 44 367
e 44 373
e 44 377
e 44 385
e 44 390
e 44 396
e 44 407
e 44 413
e 44 420
e 44 425
e 44 434
e 44 441
e 44 450
e 44 452
e 44 462
e 44 480
e 44 482
e 44 505
e 44 509
e 44 531
e 44 535
e 44 557
e 44 572
e 44 594
e 44 609
e 44 617
e 44 646
e 44 655
e 44 657
e 44 677
e 44 680
e 44 699
e 44 709
e 44 747
e 44 757
e 44 771
e 44 777
e 44 781
e 44 784
e 44 788
e 44 791
e 44 802
e 44 804
e 44 856
e 44 870
e 44 908
e 44 914
e 44 929
e 44 934
e 44 947
e 44 951
e 44 973
e 44 975
e 44 976
e 44 978
e 44 980
e 44 983
e 44 984
e 44 992
e 44 996
e 45 262
e 45 263
e 45 276
e 45 278
e 45 283
e 45 290
e 45 292
e 45 310
e 45 315
e 45 328
e 45 329
e 45 337
e 45 341
e 45 344
e 45 348
e 45 366
e 45 368
e 45 387
e 45 398
e 45 407
e 45 413
e 45 416
e 45 427
e 45 430
e 45 432
e 45 433
e 45 434
e 45 442
e 45 458
e 45 468
e 45 471
e 45 472
e 45 475
e 45 478
e 45 486
e 45 530
e 45 532
e 45 536
e 45 548
e 45 575
e 45 583
e 45 613
e 45 614
e 45 624
e 45 637
e 45 639
e 45 645
e 45 653
e 45 655
e 45 663
e 45 669
e 45 672
e 45 674
e 45 701
e 45 702
e 45 705
e 45 709
e 45 713
e 45 743
e 45 747
e 45 755
e 45 760
e 45 770
e 45 779
e 45 791
e 45 800
e 45 811
e 45 812
e 45 815
e 45 816
e 45 824
e 45 832
e 45 833
e 45 843
e 45 883
e 45 884
e 45 889
e 45 897
e 45 898
e 45 899
e 45 912
e 45 926
e 45 943
e 45 948
e 45 956
e 45 977
e 46 252
e 46 256
e 46 263
e 46 270
e 46 289
e 46 303
e 46 305
e 46 312
e 46 324
e 46 351
e 46 374
e 46 402
e 46 405
e 46 421
e 46 425
e 46 433
e 46 439
e 46 440
e 46 461
e 46 469
e 46 471
e 46 478
e 46 480
e 46 483
e 46 500
e 46 507
e 46 535
e 46 544
e 46 555
e 46 559
e 46 562
e 46 566
e 46 568
e 46 573
e 46 579
e 46 589
e 46 596
e 46 600
e 46 608
e 46 623
e 46 635
e 46 639
e 46 649
e 46 663
e 46 665
e 46 686
e 46 692
e 46 702
e 46 706
e 46 746
e 46 774
e 46 807
e 46 812
e 46 815
e 46 833
e 46 840
e 46 867
e 46 879
e 46 900
e 46 922
e 46 933
e 46 936
e 46 940
e 46 944
e 46 952
e 46 983
e 46 992
e 46 999
e 47 262
e 47 267
e 47 281
e 47 302
e 47 309
e 47 312
e 47 325
e 47 326
e 47 380
e 47 389
e 47 399
e 47 402
e 47 424
e 47 426
e 47 428
e 47 430
e 47 443
e 47 446
e 47 456
e 47 462
e 47 480
e 47 482
e 47 494
e 47 500
e 47 504
e 47 510
e 47 528
e 47 533
e 47 540
e 47 542
e 47 559
e 47 575
e 47 591
e 47 597
e 47 617
e 47 618
e 47 647
e 47 727
e 47 734
e 47 750
e 47 774
e 47 781
e 47 795
e 47 803
e 47 808
e 47 812
e 47 823
e 47 826
e 47 833
e 47 844
e 47 848
e 47 871
e 47 883
e 47 907
e 47 908
e 47 927
e 47 931
e 47 938
e 47 942
e 47 953
e 47 964
e 47 968
e 47 998
e 48 257
e 48 263
e 48 284
e 48 293
e 48 318
e 48 324
e 48 327
e 48 336
e 48 380
e 48 385
e 48 388
e 48 403
e 48 404
e 48 408
e 48 417
e 48 425
e 48 429
e 48 433
e 48 441
e 48 450
e 48 451
e 48 462
e 48 464
e 48 468
e 48 480
e 48 486
e 48 500
e 48 505
e 48 512
e 48 526
e 48 552
e 48 558
e 48 560
e 48 568
e 48 573
e 48 589
e 48 611
e 48 624
e 48 635
e 48 638
e 48 639
e 48 694
e 48 700
e 48 726
e 48 749
e 48 750
e 48 778
e 48 781
e 48 784
e 48 800
e 48 807
e 48 809
e 48 812
e 48 823
e 48 825
e 48 832
e 48 836
e 48 837
e 48 845
e 48 854
e 48 878
e 48 883
e 48 891
e 48 900
e 48 905
e 48 909
e 48 911
e 48 912
e 48 923
e 48 936
e 48 943
e 48 959
e 48 963
e 48 973
e 48 983
e 48 993
e 49 268
e 49 277
e 49 280
e 49 287
e 49 333
e 49 358
e 49 360
e 49 370
e 49 373
e 49 376
e 49 381
e 49 388
e 49 391
e 49 412
e 49 415
e 49 423
e 49 428
e 49 440
e 49 445
e 49 447
e 49 449
e 49 465
e 49 477
e 49 480
e 49 486
e 49 522
e 49 523
e 49 526
e 49 529
e 49 532
e 49 541
e 49 546
e 49 548
e 49 562
e 49 564
e 49 582
e 49 592
e 49 594
e 49 608
e 49 612
e 49 615
e 49 618
e 49 632
e 49 653
e 49 674
e 49 677
e 49 680
e 49 681
e 49 699
e 49 705
e 49 713
e 49 714
e 49 729
e 49 732
e 49 737
e 49 742
e 49 745
e 49 751
e 49 755
e 49 778
e 49 785
e 49 823
e 49 837
e 49 851
e 49 858
e 49 878
e 49 893
e 49 905
e 49 911
e 49 913
e 49 923
e 49 940
e 49 978
e 49 984
e 49 986
e 49 998
e 50 255
e 50 270
e 50 281
e 50 286
e 50 291
e 50 297
e 50 301
e 50 303
e 50 311
e 50 321
e 50 336
e 50 345
e 50 369
e 50 382
e 50 383
e 50 386
e 50 390
e 50 392
e 50 404
e 50 409
e 50 416
e 50 434
e 50 441
e 50 444
e 50 467
e 50 470
e 50 488
e 50 491
e 50 498
e 50 500
e 50 503
e 50 514
e 50 518
e 50 530
e 50 531
e 50 550
e 50 559
e 50 567
e 50 569
e 50 570
e 50 603
e 50 609
e 50 614
e 50 615
e 50 627
e 50 641
e 50 655
e 50 661
e 50 673
e 50 680
e 50 689
e 50 690
e 50 695
e 50 696
e 50 707
e 50 733
e 50 738
e 50 743
e 50 762
e 50 763
e 50 777
e 50 784
e 50 794
e 50 800
e 50 810
e 50 814
e 50 818
e 50 820
e 50 844
e 50 849
e 50 854
e 50 858
e 50 878
e 50 882
e 50 883
e 50 887
e 50 893
e 50 912
e 50 918
e 50 919
e 50 932
e 50 948
e 50 957
e 50 963
e 50 965
e 50 966
e 50 969
e 50 971
e 50 974
e 50 978
e 50 983
e 50 986
e 50 992
e 50 995
e 50 996
e 51 252
e 51 255
e 51 278
e 51 304
e 51 317
e 51 333
e 51 334
e 51 346
e 51 348
e 51 359
e 51 375
e 51 386
e 51 392
e 51 398
e 51 410
e 51 415
e 51 444
e 51 461
e 51 480
e 51 504
e 51 508
e 51 519
e 51 521
e 51 530
e 51 541
e 51 565
e 51 571
e 51 572
e 51 573
e 51 601
e 51 602
e 51 614
e 51 632
e 51 633
e 51 634
e 51 653
e 51 656
e 51 658
e 51 665
e 51 672
e 51 678
e 51 681
e 51 691
e 51 701
e 51 707
e 51 715
e 51 716
e 51 724
e 51 736
e 51 744
e 51 752
e 51 754
e 51 779
e 51 783
e 51 786
e 51 787
e 51 797
e 51 802
e 51 823
e 51 834
e 51 846
e 51 856
e 51 864
e 51 885
e 51 897
e 51 898
e 51 904
e 51 911
e 51 913
e 51 921
e 51 925
e 51 931
e 51 939
e 51 948
e 51 955
e 51 960
e 51 962
e 51 964
e 51 967
e 51 970
e 51 976
e 51 982
e 51 990
e 51 992
e 51 993
e 51 999
e 52 278
e 52 280
e 52 286
e 52 293
e 52 297
e 52 312
e 52 333
e 52 337
e 52 341
e 52 362
e 52 369
e 52 384
e 52 387
e 52 404
e 52 405
e 52 408
e 52 423
e 52 440
e 52 442
e 52 443
e 52 450
e 52 463
e 52 482
e 52 493
e 52 504
e 52 505
e 52 514
e 52 515
e 52 519
e 52 545
e 52 547
e 52 564
e 52 569
e 52 571
e 52 587
e 52 593
e 52 612
e 52 631
e 52 636
e 52 647
e 52 653
e 52 655
e 52 658
e 52 660
e 52 664
e 52 670
e 52 684
e 52 688
e 52 698
e 52 710
e 52 720
e 52 747
e 52 754
e 52 762
e 52 765
e 52 769
e 52 776
e 52 778
e 52 786
e 52 806
e 52 807
e 52 808
e 52 815
e 52 820
e 52 834
e 52 856
e 52 858
e 52 882
e 52 883
e 52 900
e 52 907
e 52 914
e 52 915
e 52 923
e 52 935
e 52 936
e 52 941
e 52 960
e 52 963
e 52 970
e 52 971
e 52 978
e 52 981
e 52 999
e 53 260
e 53 261
e 53 267
e 53 268
e 53 269
e 53 287
e 53 297
e 53 298
e 53 312
e 53 322
e 53 328
e 53 335
e 53 346
e 53 360
e 53 369
e 53 379
e 53 384
e 53 386
e 53 388
e 53 393
e 53 403
e 53 420
e 53 424
e 53 462
e 53 472
e 53 478
e 53 495
e 53 504
e 53 515
e 53 524
e 53 527
e 53 529
e 53 566
e 53 579
e 53 589
e 53 614
e 53 618
e 53 626
e 53 627
e 53 628
e 53 654
e 53 657
e 53 662
e 53 664
e 53 680
e 53 685
e 53 691
e 53 695
e 53 701
e 53 704
e 53 755
e 53 797
e 53 807
e 53 822
e 53 836
e 53 844
e 53 848
e 53 850
e 53 883
e 53 886
e 53 904
e 53 915
e 53 919
e 53 932
e 53 948
e 53 961
e 53 964
e 53 971
e 53 977
e 53 986
e 53 987
e 53 997
e 53 998
e 54 251
e 54 265
e 54 271
e 54 277
e 54 279
e 54 305
e 54 316
e 54 339
e 54 351
e 54 354
e 54 357
e 54 363
e 54 370
e 54 373
e 54 379
e 54 396
e 54 398
e 54 409
e 54 412
e 54 427
e 54 432
e 54 445
e 54 472
e 54 483
e 54 489
e 54 491
e 54 518
e 54 524
e 54 531
e 54 554
e 54 569
e 54 580
e 54 595
e 54 607
e 54 617
e 54 618
e 54 627
e 54 632
e 54 637
e 54 646
e 54 656
e 54 659
e 54 671
e 54 687
e 54 701
e 54 706
e 54 708
e 54 709
e 54 723
e 54 724
e 54 729
e 54 731
e 54 734
e 54 740
e 54 750
e 54 762
e 54 764
e 54 780
e 54 796
e 54 807
e 54 824
e 54 826
e 54 827
e 54 836
e 54 844
e 54 870
e 54 880
e 54 881
e 54 953
e 54 957
e 54 958
e 54 960
e 54 975
e 54 982
e 55 253
e 55 269
e 55 273
e 55 274
e 55 277
e 55 294
e 55 303
e 55 322
e 55 337
e 55 338
e 55 341
e 55 359
e 55 365
e 55 366
e 55 369
e 55 379
e 55 397
e 55 401
e 55 406
e 55 410
e 55 425
e 55 432
e 55 433
e 55 434
e 55 454
e 55 458
e 55 464
e 55 470
e 55 471
e 55 475
e 55 479
e 55 480
e 55 482
e 55 487
e 55 497
e 55 499
e 55 507
e 55 520
e 55 522
e 55 524
e 55 531
e 55 533
e 55 537
e 55 542
e 55 570
e 55 576
e 55 586
e 55 609
e 55 615
e 55 635
e 55 637
e 55 639
e 55 656
e 55 665
e 55 670
e 55 671
e 55 675
e 55 686
e 55 691
e 55 696
e 55 698
e 55 721
e 55 726
e 55 735
e 55 761
e 55 763
e 55 790
e 55 797
e 55 803
e 55 815
e 55 826
e 55 851
e 55 860
e 55 887
e 55 888
e 55 910
e 55 918
e 55 934
e 55 951
e 55 966
e 55 980
e 55 985
e 55 996
e 56 282
e 56 286
e 56 299
e 56 313
e 56 314
e 56 317
e 56 320
e 56 323
e 56 325
e 56 328
e 56 332
e 56 345
e 56 359
e 56 363
e 56 376
e 56 420
e 56 440
e 56 446
e 56 449
e 56 453
e 56 460
e 56 469
e 56 470
e 56 487
e 56 488
e 56 496
e 56 504
e 56 511
e 56 515
e 56 522
e 56 524
e 56 544
e 56 547
e 56 548
e 56 566
e 56 577
e 56 580
e 56 594
e 56 613
e 56 619
e 56 630
e 56 642
e 56 662
e 56 663
e 56 665
e 56 676
e 56 698
e 56 705
e 56 728
e 56 734
e 56 775
e 56 784
e 56 787
e 56 812
e 56 818
e 56 824
e 56 844
e 56 846
e 56 860
e 56 861
e 56 873
e 56 880
e 56 893
e 56 895
e 56 896
e 56 898
e 56 903
e 56 917
e 56 933
e 56 934
e 56 938
e 56 940
e 56 945
e 56 947
e 56 949
e 56 952
e 56 955
e 56 956
e 56 957
e 56 959
e 56 967
e 56 983
e 56 996
e 57 259
e 57 262
e 57 275
e 57 281
e 57 282
e 57 298
e 57 300
e 57 302
e 57 308
e 57 314
e 57 320
e 57 322
e 57 325
e 57 328
e 57 335
e 57 344
e 57 345
e 57 347
e 57 350
e 57 379
e 57 381
e 57 382
e 57 385
e 57 392
e 57 411
e 57 413
e 57 415
e 57 417
e 57 464
e 57 483
e 57 494
e 57 506
e 57 509
e 57 518
e 57 527
e 57 538
e 57 539
e 57 552
e 57 579
e 57 581
e 57 603
e 57 606
e 57 607
e 57 611
e 57 620
e 57 623
e 57 629
e 57 632
e 57 634
e 57 667
e 57 674
e 57 678
e 57 680
e 57 692
e 57 718
e 57 732
e 57 736
e 57 738
e 57 741
e 57 763
e 57 769
e 57 775
e 57 784
e 57 809
e 57 812
e 57 813
e 57 814
e 57 818
e 57 824
e 57 874
e 57 885
e 57 897
e 57 910
e 57 915
e 57 920
e 57 928
e 57 930
e 57 940
e 57 948
e 57 959
e 57 960
e 57 968
e 57 984
e 57 991
e 57 993
e 57 998
e 58 257
e 58 263
e 58 272
e 58 287
e 58 295
e 58 300
e 58 316
e 58 331
e 58 351
e 58 359
e 58 361
e 58 365
e 58 412
e 58 420
e 58 442
e 58 464
e 58 473
e 58 475
e 58 487
e 58 497
e 58 503
e 58 510
e 58 514
e 58 517
e 58 520
e 58 529
e 58 537
e 58 540
e 58 567
e 58 568
e 58 575
e 58 582
e 58 589
e 58 594
e 58 597
e 58 602
e 58 622
e 58 627
e 58 629
e 58 634
e 58 637
e 58 644
e 58 648
e 58 650
e 58 653
e 58 664
e 58 665
e 58 669
e 58 683
e 58 722
e 58 735
e 58 756
e 58 767
e 58 785
e 58 813
e 58 818
e 58 830
e 58 851
e 58 885
e 58 890
e 58 924
e 58 926
e 58 929
e 58 933
e 58 934
e 58 962
e 58 963
e 58 975
e 58 988
e 59 259
e 59 266
e 59 275
e 59 288
e 59 292
e 59 300
e 59 306
e 59 316
e 59 317
e 59 326
e 59 328
e 59 337
e 59 356
e 59 357
e 59 361
e 59 369
e 59 374
e 59 375
e 59 409
e 59 414
e 59 420
e 59 436
e 59 448
e 59 458
e 59 498
e 59 503
e 59 515
e 59 520
e 59 525
e 59 526
e 59 550
e 59 554
e 59 556
e 59 557
e 59 565
e 59 569
e 59 586
e 59 607
e 59 628
e 59 633
e 59 652
e 59 669
e 59 675
e 59 701
e 59 704
e 59 708
e 59 715
e 59 718
e 59 729
e 59 754
e 59 757
e 59 765
e 59 770
e 59 788
e 59 827
e 59 830
e 59 832
e 59 835
e 59 849
e 59 852
e 59 858
e 59 892
e 59 895
e 59 897
e 59 900
e 59 905
e 59 919
e 59 935
e 59 936
e 59 938
e 59 940
e 59 950
e 59 957
e 59 967
e 59 970
e 59 971
e 59 972
e 60 272
e 60 284
e 60 289
e 60 303
e 60 318
e 60 323
e 60 334
e 60 337
e 60 364
e 60 373
e 60 380
e 60 385
e 60 396
e 60 399
e 60 418
e 60 438
e 60 443
e 60 448
e 60 449
e 60 450
e 60 455
e 60 474
e 60 477
e 60 482
e 60 490
e 60 496
e 60 501
e 60 506
e 60 518
e 60 522
e 60 543
e 60 558
e 60 565
e 60 566
e 60 585
e 60 592
e 60 603
e 60 624
e 60 628
e 60 629
e 60 632
e 60 648
e 60 655
e 60 663
e 60 664
e 60 681
e 60 685
e 60 700
e 60 723
e 60 736
e 60 814
e 60 826
e 60 828
e 60 849
e 60 880
e 60 892
e 60 905
e 60 924
e 60 927
e 60 931
e 60 938
e 60 945
e 60 953
e 60 957
e 60 983
e 60 992
e 61 289
e 61 293
e 61 302
e 61 323
e 61 384
e 61 414
e 61 461
e 61 466
e 61 468
e 61 514
e 61 532
e 61 541
e 61 572
e 61 587
e 61 644
e 61 649
e 61 651
e 61 672
e 61 687
e 61 692
e 61 693
e 61 705
e 61 706
e 61 736
e 61 746
e 61 747
e 61 749
e 61 762
e 61 785
e 61 791
e 61 806
e 61 810
e 61 816
e 61 823
e 61 827
e 61 830
e 61 834
e 61 836
e 61 850
e 61 902
e 61 908
e 61 955
e 61 966
e 61 987
e 61 993
e 61 998
e 62 256
e 62 266
e 62 285
e 62 297
e 62 303
e 62 313
e 62 317
e 62 323
e 62 331
e 62 332
e 62 335
e 62 336
e 62 339
e 62 363
e 62 370
e 62 391
e 62 393
e 62 396
e 62 400
e 62 404
e 62 418
e 62 420
e 62 428
e 62 444
e 62 452
e 62 469
e 62 492
e 62 497
e 62 503
e 62 504
e 62 538
e 62 546
e 62 548
e 62 549
e 62 552
e 62 575
e 62 577
e 62 582
e 62 583
e 62 601
e 62 605
e 62 624
e 62 627
e 62 633
e 62 634
e 62 644
e 62 659
e 62 686
e 62 690
e 62 693
e 62 704
e 62 707
e 62 729
e 62 731
e 62 733
e 62 744
e 62 757
e 62 775
e 62 776
e 62 783
e 62 786
e 62 789
e 62 802
e 62 807
e 62 825
e 62 827
e 62 836
e 62 840
e 62 868
e 62 883
e 62 894
e 62 908
e 62 923
e 62 925
e 62 932
e 62 937
e 62 942
e 62 946
e 62 960
e 62 962
e 62 966
e 62 995
e 62 997
e 63 260
e 63 280
e 63 291
e 63 297
e 63 311
e 63 322
e 63 323
e 63 325
e 63 333
e 63 357
e 63 383
e 63 409
e 63 417
e 63 419
e 63 433
e 63 444
e 63 450
e 63 451
e 63 455
e 63 458
e 63 472
e 63 481
e 63 483
e 63 500
e 63 504
e 63 516
e 63 522
e 63 528
e 63 541
e 63 564
e 63 570
e 63 580
e 63 590
e 63 595
e 63 599
e 63 603
e 63 605
e 63 612
e 63 641
e 63 642
e 63 651
e 63 655
e 63 677
e 63 682
e 63 699
e 63 702
e 63 704
e 63 709
e 63 722
e 63 732
e 63 749
e 63 752
e 63 789
e 63 790
e 63 800
e 63 805
e 63 810
e 63 811
e 63 812
e 63 820
e 63 868
e 63 886
e 63 888
e 63 896
e 63 917
e 63 952
e 63 953
e 63 958
e 63 962
e 63 996
e 64 260
e 64 267
e 64 271
e 64 291
e 64 307
e 64 308
e 64 330
e 64 336
e 64 347
e 64 360
e 64 361
e 64 367
e 64 374
e 64 376
e 64 380
e 64 382
e 64 383
e 64 388
e 64 392
e 64 394
e 64 428
e 64 433
e 64 435
e 64 449
e 64 453
e 64 466
e 64 484
e 64 489
e 64 510
e 64 516
e 64 528
e 64 553
e 64 559
e 64 569
e 64 570
e 64 576
e 64 580
e 64 599
e 64 600
e 64 603
e 64 605
e 64 620
e 64 629
e 64 636
e 64 640
e 64 652
e 64 678
e 64 683
e 64 689
e 64 692
e 64 722
e 64 769
e 64 771
e 64 798
e 64 807
e 64 808
e 64 810
e 64 824
e 64 836
e 64 858
e 64 864
e 64 872
e 64 876
e 64 885
e 64 897
e 64 898
e 64 903
e 64 911
e 64 913
e 64 924
e 64 937
e 64 946
e 64 952
e 64 971
e 64 995
e 65 259
e 65 263
e 65 264
e 65 280
e 65 281
e 65 286
e 65 290
e 65 301
e 65 310
e 65 312
e 65 360
e 65 375
e 65 376
e 65 388
e 65 392
e 65 397
e 65 399
e 65 401
e 65 410
e 65 413
e 65 416
e 65 438
e 65 460
e 65 471
e 65 482
e 65 494
e 65 503
e 65 514
e 65 536
e 65 538
e 65 539
e 65 543
e 65 553
e 65 558
e 65 579
e 65 601
e 65 610
e 65 634
e 65 638
e 65 640
e 65 642
e 65 652
e 65 653
e 65 667
e 65 682
e 65 684
e 65 688
e 65 706
e 65 708
e 65 725
e 65 729
e 65 733
e 65 736
e 65 746
e 65 752
e 65 766
e 65 791
e 65 792
e 65 840
e 65 841
e 65 856
e 65 878
e 65 900
e 65 913
e 65 917
e 65 921
e 65 936
e 65 964
e 65 969
e 65 973
e 65 975
e 65 977
e 65 994
e 66 256
e 66 265
e 66 303
e 66 317
e 66 324
e 66 326
e 66 334
e 66 339
e 66 356
e 66 368
e 66 371
e 66 374
e 66 387
e 66 407
e 66 460
e 66 472
e 66 476
e 66 479
e 66 486
e 66 492
e 66 501
e 66 516
e 66 519
e 66 530
e 66 539
e 66 540
e 66 548
e 66 603
e 66 611
e 66 619
e 66 634
e 66 635
e 66 643
e 66 687
e 66 692
e 66 698
e 66 725
e 66 728
e 66 749
e 66 751
e 66 753
e 66 783
e 66 785
e 66 788
e 66 793
e 66 797
e 66 802
e 66 807
e 66 812
e 66 813
e 66 821
e 66 823
e 66 825
e 66 826
e 66 835
e 66 842
e 66 843
e 66 856
e 66 871
e 66 878
e 66 883
e 66 895
e 66 898
e 66 903
e 66 904
e 66 912
e 66 917
e 66 932
e 66 942
e 66 944
e 66 947
e 66 958
e 66 978
e 66 988
e 67 261
e 67 268
e 67 279
e 67 290
e 67 319
e 67 322
e 67 344
e 67 345
e 67 352
e 67 364
e 67 372
e 67 374
e 67 405
e 67 424
e 67 428
e 67 444
e 67 459
e 67 496
e 67 530
e 67 544
e 67 547
e 67 556
e 67 561
e 67 568
e 67 569
e 67 594
e 67 618
e 67 626
e 67 642
e 67 663
e 67 664
e 67 669
e 67 676
e 67 683
e 67 697
e 67 709
e 67 715
e 67 718
e 67 720
e 67 726
e 67 729
e 67 732
e 67 734
e 67 735
e 67 737
e 67 738
e 67 746
e 67 757
e 67 762
e 67 765
e 67 772
e 67 803
e 67 812
e 67 819
e 67 826
e 67 829
e 67 832
e 67 843
e 67 846
e 67 850
e 67 853
e 67 854
e 67 861
e 67 864
e 67 867
e 67 888
e 67 892
e 67 906
e 67 911
e 67 914
e 67 930
e 67 938
e 67 965
e 67 971
e 67 972
e 67 987
e 67 988
e 67 990
e 67 992
e 68 255
e 68 256
e 68 262
e 68 267
e 68 272
e 68 276
e 68 298
e 68 323
e 68 370
e 68 377
e 68 422
e 68 427
e 68 478
e 68 491
e 68 496
e 68 497
e 68 500
e 68 505
e 68 514
e 68 515
e 68 516
e 68 540
e 68 574
e 68 575
e 68 582
e 68 585
e 68 594
e 68 597
e 68 600
e 68 629
e 68 634
e 68 648
e 68 653
e 68 666
e 68 667
e 68 683
e 68 689
e 68 700
e 68 704
e 68 718
e 68 723
e 68 738
e 68 760
e 68 781
e 68 783
e 68 790
e 68 794
e 68 795
e 68 802
e 68 808
e 68 828
e 68 830
e 68 857
e 68 860
e 68 876
e 68 897
e 68 922
e 68 923
e 68 937
e 68 949
e 68 951
e 68 952
e 68 957
e 68 969
e 68 972
e 68 973
e 68 980
e 68 982
e 68 987
e 68 999
e 69 264
e 69 278
e 69 280
e 69 281
e 69 292
e 69 311
e 69 324
e 69 337
e 69 355
e 69 358
e 69 363
e 69 379
e 69 413
e 69 423
e 69 427
e 69 440
e 69 443
e 69 483
e 69 489
e 69 500
e 69 513
e 69 521
e 69 523
e 69 534
e 69 594
e 69 596
e 69 640
e 69 643
e 69 646
e 69 648
e 69 649
e 69 661
e 69 683
e 69 714
e 69 726
e 69 736
e 69 750
e 69 751
e 69 755
e 69 763
e 69 766
e 69 786
e 69 798
e 69 815
e 69 821
e 69 827
e 69 829
e 69 846
e 69 854
e 69 856
e 69 865
e 69 875
e 69 902
e 69 918
e 69 928
e 69 935
e 69 943
e 69 954
e 69 961
e 69 967
e 69 979
e 69 980
e 69 990
e 69 999
e 70 278
e 70 282
e 70 292
e 70 293
e 70 294
e 70 298
e 70 301
e 70 303
e 70 306
e 70 307
e 70 319
e 70 320
e 70 330
e 70 339
e 70 355
e 70 361
e 70 367
e 70 382
e 70 409
e 70 439
e 70 452
e 70 454
e 70 458
e 70 462
e 70 477
e 70 482
e 70 493
e 70 495
e 70 496
e 70 519
e 70 524
e 70 526
e 70 531
e 70 535
e 70 536
e 70 542
e 70 551
e 70 556
e 70 564
e 70 565
e 70 573
e 70 579
e 70 600
e 70 604
e 70 611
e 70 622
e 70 630
e 70 641
e 70 654
e 70 666
e 70 708
e 70 709
e 70 716
e 70 725
e 70 726
e 70 754
e 70 774
e 70 786
e 70 790
e 70 799
e 70 802
e 70 815
e 70 820
e 70 828
e 70 830
e 70 837
e 70 841
e 70 848
e 70 851
e 70 878
e 70 894
e 70 896
e 70 902
e 70 904
e 70 905
e 70 909
e 70 918
e 70 942
e 70 949
e 70 952
e 70 970
e 70 982
e 70 986
e 70 988
e 70 993
e 71 261
e 71 265
e 71 267
e 71 276
e 71 277
e 71 280
e 71 295
e 71 296
e 71 299
e 71 346
e 71 369
e 71 370
e 71 376
e 71 388
e 71 396
e 71 397
e 71 399
e 71 402
e 71 405
e 71 426
e 71 434
e 71 438
e 71 443
e 71 448
e 71 450
e 71 452
e 71 462
e 71 472
e 71 486
e 71 496
e 71 523
e 71 528
e 71 534
e 71 539
e 71 559
e 71 588
e 71 599
e 71 607
e 71 609
e 71 619
e 71 621
e 71 635
e 71 656
e 71 659
e 71 668
e 71 679
e 71 685
e 71 728
e 71 740
e 71 746
e 71 749
e 71 783
e 71 784
e 71 785
e 71 791
e 71 799
e 71 813
e 71 818
e 71 824
e 71 827
e 71 851
e 71 861
e 71 900
e 71 905
e 71 914
e 71 915
e 71 937
e 71 949
e 71 953
e 71 958
e 71 982
e 72 261
e 72 280
e 72 284
e 72 288
e 72 312
e 72 315
e 72 318
e 72 340
e 72 341
e 72 346
e 72 347
e 72 355
e 72 364
e 72 368
e 72 371
e 72 392
e 72 396
e 72 397
e 72 404
e 72 413
e 72 414
e 72 421
e 72 436
e 72 462
e 72 492
e 72 495
e 72 497
e 72 501
e 72 532
e 72 570
e 72 579
e 72 589
e 72 598
e 72 602
e 72 608
e 72 613
e 72 616
e 72 635
e 72 650
e 72 651
e 72 663
e 72 695
e 72 719
e 72 721
e 72 740
e 72 766
e 72 787
e 72 798
e 72 801
e 72 810
e 72 824
e 72 840
e 72 856
e 72 883
e 72 888
e 72 890
e 72 891
e 72 938
e 72 946
e 72 954
e 72 956
e 72 969
e 72 973
e 72 987
e 72 993
e 72 999
e 72 1000
e 73 253
e 73 258
e 73 263
e 73 280
e 73 281
e 73 294
e 73 296
e 73 299
e 73 318
e 73 319
e 73 323
e 73 349
e 73 354
e 73 356
e 73 357
e 73 376
e 73 384
e 73 392
e 73 396
e 73 401
e 73 402
e 73 408
e 73 410
e 73 428
e 73 450
e 73 457
e 73 463
e 73 494
e 73 499
e 73 507
e 73 509
e 73 519
e 73 539
e 73 542
e 73 543
e 73 552
e 73 554
e 73 559
e 73 562
e 73 564
e 73 568
e 73 577
e 73 601
e 73 617
e 73 623
e 73 628
e 73 647
e 73 655
e 73 658
e 73 665
e 73 670
e 73 674
e 73 675
e 73 679
e 73 681
e 73 693
e 73 696
e 73 701
e 73 709
e 73 715
e 73 725
e 73 726
e 73 733
e 73 748
e 73 773
e 73 774
e 73 783
e 73 799
e 73 808
e 73 822
e 73 825
e 73 826
e 73 829
e 73 830
e 73 840
e 73 858
e 73 864
e 73 869
e 73 870
e 73 884
e 73 898
e 73 912
e 73 917
e 73 922
e 73 923
e 73 951
e 73 953
e 73 964
e 73 969
e 73 981
e 73 984
e 73 999
e 74 265
e 74 271
e 74 275
e 74 279
e 74 285
e 74 291
e 74 293
e 74 314
e 74 320
e 74 342
e 74 350
e 74 352
e 74 368
e 74 377
e 74 379
e 74 383
e 74 387
e 74 401
e 74 412
e 74 428
e 74 439
e 74 440
e 74 444
e 74 452
e 74 489
e 74 491
e 74 498
e 74 501
e 74 505
e 74 506
e 74 516
e 74 520
e 74 532
e 74 539
e 74 541
e 74 568
e 74 579
e 74 633
e 74 636
e 74 643
e 74 650
e 74 661
e 74 672
e 74 685
e 74 699
e 74 702
e 74 712
e 74 726
e 74 735
e 74 738
e 74 739
e 74 740
e 74 752
e 74 766
e 74 768
e 74 772
e 74 783
e 74 804
e 74 820
e 74 834
e 74 838
e 74 842
e 74 853
e 74 855
e 74 860
e 74 865
e 74 878
e 74 902
e 74 912
e 74 924
e 74 928
e 74 930
e 74 931
e 74 939
e 74 941
e 74 942
e 74 949
e 74 953
e 74 967
e 74 968
e 74 978
e 74 993
e 74 995
e 74 996
e 75 253
e 75 255
e 75 304
e 75 309
e 75 326
e 75 347
e 75 358
e 75 372
e 75 381
e 75 390
e 75 394
e 75 397
e 75 409
e 75 420
e 75 421
e 75 453
e 75 482
e 75 484
e 75 497
e 75 521
e 75 563
e 75 597
e 75 601
e 75 603
e 75 604
e 75 607
e 75 609
e 75 619
e 75 623
e 75 630
e 75 635
e 75 642
e 75 644
e 75 651
e 75 656
e 75 665
e 75 673
e 75 677
e 75 705
e 75 714
e 75 717
e 75 754
e 75 780
e 75 793
e 75 796
e 75 797
e 75 802
e 75 836
e 75 840
e 75 859
e 75 884
e 75 886
e 75 897
e 75 904
e 75 917
e 75 931
e 75 949
e 75 952
e 76 254
e 76 262
e 76 265
e 76 279
e 76 308
e 76 323
e 76 331
e 76 340
e 76 345
e 76 354
e 76 361
e 76 368
e 76 370
e 76 383
e 76 394
e 76 398
e 76 400
e 76 439
e 76 454
e 76 465
e 76 500
e 76 507
e 76 509
e 76 513
e 76 520
e 76 526
e 76 532
e 76 540
e 76 541
e 76 557
e 76 566
e 76 568
e 76 572
e 76 587
e 76 591
e 76 601
e 76 639
e 76 676
e 76 703
e 76 719
e 76 722
e 76 732
e 76 784
e 76 816
e 76 828
e 76 831
e 76 834
e 76 850
e 76 855
e 76 856
e 76 857
e 76 860
e 76 861
e 76 870
e 76 877
e 76 882
e 76 896
e 76 903
e 76 917
e 76 925
e 76 934
e 76 936
e 76 940
e 76 943
e 76 951
e 76 955
e 76 965
e 76 975
e 76 986
e 76 988
e 76 994
e 76 997
e 77 254
e 77 255
e 77 272
e 77 281
e 77 284
e 77 294
e 77 295
e 77 296
e 77 304
e 77 318
e 77 340
e 77 347
e 77 357
e 77 358
e 77 361
e 77 368
e 77 374
e 77 376
e 77 379
e 77 380
e 77 381
e 77 386
e 77 399
e 77 404
e 77 405
e 77 406
e 77 409
e 77 410
e 77 430
e 77 439
e 77 447
e 77 450
e 77 451
e 77 452
e 77 483
e 77 507
e 77 514
e 77 530
e 77 535
e 77 553
e 77 558
e 77 563
e 77 586
e 77 601
e 77 603
e 77 616
e 77 631
e 77 654
e 77 658
e 77 664
e 77 682
e 77 707
e 77 708
e 77 729
e 77 736
e 77 740
e 77 743
e 77 748
e 77 749
e 77 755
e 77 756
e 77 761
e 77 763
e 77 765
e 77 770
e 77 797
e 77 799
e 77 805
e 77 807
e 77 814
e 77 817
e 77 824
e 77 829
e 77 830
e 77 838
e 77 847
e 77 865
e 77 867
e 77 872
e 77 876
e 77 883
e 77 886
e 77 890
e 77 896
e 77 906
e 77 929
e 77 936
e 77 948
e 77 971
e 77 973
e 77 984
e 77 989
e 77 994
e 77 998
e 78 256
e 78 268
e 78 314
e 78 321
e 78 329
e 78 333
e 78 357
e 78 376
e 78 410
e 78 411
e 78 413
e 78 414
e 78 423
e 78 426
e 78 452
e 78 458
e 78 467
e 78 478
e 78 482
e 78 489
e 78 514
e 78 532
e 78 541
e 78 550
e 78 587
e 78 596
e 78 602
e 78 611
e 78 622
e 78 641
e 78 652
e 78 673
e 78 696
e 78 701
e 78 702
e 78 726
e 78 754
e 78 765
e 78 770
e 78 783
e 78 784
e 78 790
e 78 797
e 78 802
e 78 823
e 78 843
e 78 862
e 78 882
e 78 889
e 78 891
e 78 895
e 78 908
e 78 919
e 78 934
e 78 944
e 78 951
e 78 955
e 78 963
e 78 973
e 78 981
e 78 992
e 79 252
e 79 253
e 79 259
e 79 267
e 79 284
e 79 315
e 79 318
e 79 332
e 79 342
e 79 343
e 79 352
e 79 355
e 79 356
e 79 357
e 79 358
e 79 362
e 79 371
e 79 373
e 79 374
e 79 376
e 79 388
e 79 428
e 79 431
e 79 440
e 79 490
e 79 502
e 79 510
e 79 522
e 79 523
e 79 558
e 79 560
e 79 576
e 79 581
e 79 585
e 79 593
e 79 605
e 79 609
e 79 616
e 79 619
e 79 640
e 79 663
e 79 685
e 79 689
e 79 690
e 79 691
e 79 703
e 79 706
e 79 707
e 79 718
e 79 721
e 79 722
e 79 733
e 79 735
e 79 736
e 79 738
e 79 742
e 79 764
e 79 766
e 79 793
e 79 797
e 79 806
e 79 814
e 79 823
e 79 825
e 79 826
e 79 853
e 79 861
e 79 867
e 79 881
e 79 882
e 79 883
e 79 899
e 79 905
e 79 907
e 79 910
e 79 914
e 79 915
e 79 923
e 79 932
e 79 935
e 79 949
e 79 961
e 79 964
e 79 988
e 79 998
e 80 262
e 80 271
e 80 286
e 80 292
e 80 303
e 80 305
e 80 307
e 80 309
e 80 321
e 80 323
e 80 331
e 80 350
e 80 365
e 80 381
e 80 382
e 80 403
e 80 412
e 80 424
e 80 432
e 80 440
e 80 477
e 80 497
e 80 510
e 80 516
e 80 518
e 80 520
e 80 522
e 80 537
e 80 542
e 80 557
e 80 568
e 80 574
e 80 583
e 80 617
e 80 620
e 80 625
e 80 650
e 80 659
e 80 668
e 80 682
e 80 690
e 80 694
e 80 700
e 80 715
e 80 716
e 80 739
e 80 755
e 80 760
e 80 761
e 80 769
e 80 777
e 80 779
e 80 781
e 80 787
e 80 801
e 80 822
e 80 825
e 80 878
e 80 879
e 80 889
e 80 913
e 80 919
e 80 932
e 80 937
e 80 943
e 80 953
e 80 961
e 80 968
e 80 983
e 80 1000
e 81 258
e 81 280
e 81 282
e 81 300
e 81 303
e 81 306
e 81 308
e 81 318
e 81 327
e 81 345
e 81 362
e 81 364
e 81 374
e 81 379
e 81 388
e 81 391
e 81 396
e 81 404
e 81 419
e 81 420
e 81 428
e 81 435
e 81 436
e 81 443
e 81 459
e 81 468
e 81 469
e 81 472
e 81 478
e 81 496
e 81 513
e 81 514
e 81 535
e 81 543
e 81 551
e 81 562
e 81 574
e 81 583
e 81 585
e 81 589
e 81 601
e 81 602
e 81 604
e 81 611
e 81 618
e 81 625
e 81 634
e 81 652
e 81 662
e 81 670
e 81 672
e 81 680
e 81 683
e 81 691
e 81 700
e 81 706
e 81 709
e 81 728
e 81 729
e 81 749
e 81 767
e 81 782
e 81 790
e 81 791
e 81 792
e 81 811
e 81 823
e 81 830
e 81 840
e 81 841
e 81 851
e 81 863
e 81 871
e 81 879
e 81 881
e 81 899
e 81 904
e 81 907
e 81 918
e 81 921
e 81 925
e 81 942
e 81 947
e 81 954
e 81 959
e 81 965
e 81 975
e 82 278
e 82 290
e 82 294
e 82 298
e 82 309
e 82 322
e 82 332
e 82 344
e 82 346
e 82 359
e 82 361
e 82 377
e 82 382
e 82 400
e 82 405
e 82 409
e 82 428
e 82 430
e 82 431
e 82 435
e 82 453
e 82 468
e 82 471
e 82 472
e 82 488
e 82 495
e 82 499
e 82 500
e 82 539
e 82 545
e 82 548
e 82 549
e 82 554
e 82 562
e 82 570
e 82 601
e 82 612
e 82 616
e 82 621
e 82 626
e 82 632
e 82 636
e 82 656
e 82 672
e 82 674
e 82 675
e 82 689
e 82 697
e 82 704
e 82 705
e 82 710
e 82 727
e 82 729
e 82 730
e 82 731
e 82 735
e 82 738
e 82 790
e 82 813
e 82 822
e 82 832
e 82 840
e 82 842
e 82 843
e 82 848
e 82 881
e 82 883
e 82 884
e 82 900
e 82 931
e 82 935
e 82 940
e 82 955
e 82 979
e 82 980
e 82 985
e 82 987
e 82 988
e 82 994
e 83 256
e 83 295
e 83 297
e 83 317
e 83 319
e 83 329
e 83 332
e 83 339
e 83 358
e 83 365
e 83 374
e 83 381
e 83 385
e 83 393
e 83 399
e 83 403
e 83 418
e 83 428
e 83 435
e 83 442
e 83 453
e 83 459
e 83 481
e 83 501
e 83 530
e 83 534
e 83 542
e 83 547
e 83 554
e 83 559
e 83 563
e 83 569
e 83 572
e 83 581
e 83 584
e 83 590
e 83 595
e 83 606
e 83 617
e 83 624
e 83 625
e 83 635
e 83 658
e 83 676
e 83 688
e 83 689
e 83 690
e 83 699
e 83 700
e 83 703
e 83 707
e 83 715
e 83 720
e 83 728
e 83 753
e 83 756
e 83 781
e 83 787
e 83 788
e 83 819
e 83 820
e 83 825
e 83 838
e 83 842
e 83 856
e 83 866
e 83 867
e 83 877
e 83 896
e 83 906
e 83 915
e 83 930
e 83 931
e 83 935
e 83 943
e 83 945
e 83 946
e 83 959
e 83 963
e 83 983
e 83 988
e 84 263
e 84 267
e 84 268
e 84 269
e 84 300
e 84 317
e 84 326
e 84 328
e 84 345
e 84 364
e 84 365
e 84 367
e 84 370
e 84 373
e 84 384
e 84 395
e 84 403
e 84 404
e 84 415
e 84 425
e 84 436
e 84 446
e 84 457
e 84 481
e 84 496
e 84 498
e 84 515
e 84 519
e 84 538
e 84 560
e 84 570
e 84 574
e 84 579
e 84 608
e 84 610
e 84 611
e 84 643
e 84 661
e 84 662
e 84 666
e 84 678
e 84 682
e 84 685
e 84 711
e 84 726
e 84 728
e 84 735
e 84 741
e 84 745
e 84 786
e 84 810
e 84 831
e 84 846
e 84 851
e 84 877
e 84 878
e 84 882
e 84 891
e 84 901
e 84 903
e 84 907
e 84 913
e 84 915
e 84 923
e 84 924
e 84 926
e 84 936
e 84 941
e 84 962
e 84 975
e 84 982
e 84 992
e 84 999
e 85 256
e 85 257
e 85 259
e 85 265
e 85 267
e 85 269
e 85 283
e 85 305
e 85 321
e 85 329
e 85 330
e 85 340
e 85 357
e 85 358
e 85 368
e 85 375
e 85 388
e 85 423
e 85 425
e 85 429
e 85 432
e 85 433
e 85 440
e 85 443
e 85 448
e 85 453
e 85 468
e 85 530
e 85 532
e 85 535
e 85 542
e 85 543
e 85 564
e 85 580
e 85 585
e 85 588
e 85 595
e 85 605
e 85 618
e 85 628
e 85 635
e 85 642
e 85 644
e 85 650
e 85 657
e 85 678
e 85 695
e 85 716
e 85 729
e 85 741
e 85 791
e 85 812
e 85 872
e 85 889
e 85 891
e 85 903
e 85 916
e 85 924
e 85 926
e 85 930
e 85 931
e 85 946
e 85 952
e 85 965
e 85 969
e 85 977
e 85 985
e 85 992
e 86 256
e 86 268
e 86 271
e 86 283
e 86 294
e 86 297
e 86 298
e 86 304
e 86 309
e 86 312
e 86 317
e 86 318
e 86 319
e 86 339
e 86 350
e 86 360
e 86 363
e 86 366
e 86 378
e 86 389
e 86 391
e 86 404
e 86 413
e 86 416
e 86 420
e 86 432
e 86 438
e 86 477
e 86 478
e 86 488
e 86 501
e 86 518
e 86 544
e 86 551
e 86 562
e 86 579
e 86 584
e 86 599
e 86 601
e 86 608
e 86 616
e 86 618
e 86 619
e 86 634
e 86 638
e 86 652
e 86 660
e 86 666
e 86 669
e 86 690
e 86 698
e 86 717
e 86 730
e 86 735
e 86 746
e 86 747
e 86 758
e 86 768
e 86 780
e 86 806
e 86 821
e 86 836
e 86 861
e 86 875
e 86 885
e 86 892
e 86 898
e 86 913
e 86 922
e 86 941
e 86 949
e 86 950
e 86 954
e 86 959
e 86 978
e 86 985
e 86 986
e 86 989
e 87 261
e 87 274
e 87 275
e 87 295
e 87 298
e 87 311
e 87 325
e 87 329
e 87 342
e 87 354
e 87 375
e 87 379
e 87 380
e 87 385
e 87 390
e 87 393
e 87 394
e 87 395
e 87 397
e 87 404
e 87 409
e 87 428
e 87 431
e 87 458
e 87 459
e 87 469
e 87 470
e 87 473
e 87 485
e 87 498
e 87 499
e 87 507
e 87 518
e 87 522
e 87 553
e 87 556
e 87 572
e 87 573
e 87 586
e 87 588
e 87 607
e 87 609
e 87 649
e 87 660
e 87 661
e 87 678
e 87 685
e 87 708
e 87 745
e 87 747
e 87 752
e 87 761
e 87 762
e 87 767
e 87 777
e 87 783
e 87 795
e 87 803
e 87 807
e 87 808
e 87 813
e 87 819
e 87 821
e 87 826
e 87 834
e 87 840
e 87 842
e 87 846
e 87 849
e 87 855
e 87 863
e 87 868
e 87 870
e 87 883
e 87 891
e 87 897
e 87 898
e 87 908
e 87 924
e 87 929
e 87 943
e 87 947
e 87 953
e 87 956
e 87 962
e 87 984
e 87 987
e 88 256
e 88 297
e 88 312
e 88 330
e 88 338
e 88 350
e 88 352
e 88 354
e 88 372
e 88 382
e 88 389
e 88 392
e 88 403
e 88 404
e 88 406
e 88 407
e 88 438
e 88 447
e 88 449
e 88 458
e 88 488
e 88 490
e 88 493
e 88 496
e 88 508
e 88 537
e 88 538
e 88 541
e 88 548
e 88 549
e 88 553
e 88 559
e 88 561
e 88 566
e 88 568
e 88 579
e 88 590
e 88 594
e 88 596
e 88 597
e 88 621
e 88 627
e 88 633
e 88 654
e 88 655
e 88 679
e 88 685
e 88 687
e 88 690
e 88 694
e 88 704
e 88 705
e 88 720
e 88 729
e 88 730
e 88 732
e 88 734
e 88 743
e 88 744
e 88 791
e 88 797
e 88 810
e 88 819
e 88 825
e 88 831
e 88 839
e 88 841
e 88 843
e 88 844
e 88 856
e 88 863
e 88 869
e 88 870
e 88 891
e 88 899
e 88 905
e 88 916
e 88 927
e 88 930
e 88 944
e 88 966
e 88 969
e 88 988
e 89 251
e 89 273
e 89 281
e 89 290
e 89 318
e 89 325
e 89 334
e 89 350
e 89 365
e 89 373
e 89 395
e 89 407
e 89 423
e 89 425
e 89 426
e 89 434
e 89 452
e 89 458
e 89 463
e 89 476
e 89 480
e 89 486
e 89 498
e 89 512
e 89 515
e 89 517
e 89 520
e 89 521
e 89 522
e 89 526
e 89 536
e 89 545
e 89 552
e 89 595
e 89 604
e 89 618
e 89 626
e 89 628
e 89 643
e 89 665
e 89 674
e 89 686
e 89 688
e 89 689
e 89 693
e 89 713
e 89 735
e 89 743
e 89 745
e 89 755
e 89 758
e 89 780
e 89 801
e 89 803
e 89 806
e 89 816
e 89 830
e 89 834
e 89 845
e 89 861
e 89 874
e 89 879
e 89 894
e 89 903
e 89 938
e 89 939
e 89 963
e 89 969
e 89 970
e 89 993
e 89 995
e 90 257
e 90 259
e 90 268
e 90 273
e 90 279
e 90 285
e 90 291
e 90 306
e 90 311
e 90 323
e 90 324
e 90 330
e 90 353
e 90 354
e 90 360
e 90 371
e 90 374
e 90 396
e 90 397
e 90 400
e 90 427
e 90 431
e 90 433
e 90 436
e 90 444
e 90 454
e 90 455
e 90 467
e 90 478
e 90 485
e 90 488
e 90 492
e 90 495
e 90 553
e 90 583
e 90 584
e 90 594
e 90 609
e 90 610
e 90 611
e 90 629
e 90 640
e 90 662
e 90 679
e 90 692
e 90 717
e 90 738
e 90 747
e 90 777
e 90 784
e 90 785
e 90 789
e 90 794
e 90 798
e 90 803
e 90 808
e 90 836
e 90 842
e 90 850
e 90 852
e 90 862
e 90 864
e 90 883
e 90 893
e 90 894
e 90 910
e 90 931
e 90 939
e 90 963
e 90 971
e 91 255
e 91 262
e 91 270
e 91 280
e 91 281
e 91 286
e 91 287
e 91 289
e 91 291
e 91 292
e 91 327
e 91 328
e 91 331
e 91 359
e 91 365
e 91 368
e 91 374
e 91 375
e 91 376
e 91 418
e 91 420
e 91 426
e 91 440
e 91 444
e 91 451
e 91 460
e 91 462
e 91 467
e 91 470
e 91 471
e 91 473
e 91 479
e 91 480
e 91 482
e 91 487
e 91 507
e 91 528
e 91 544
e 91 556
e 91 575
e 91 585
e 91 594
e 91 595
e 91 602
e 91 604
e 91 612
e 91 629
e 91 636
e 91 637
e 91 641
e 91 649
e 91 667
e 91 673
e 91 677
e 91 692
e 91 697
e 91 718
e 91 720
e 91 721
e 91 741
e 91 753
e 91 776
e 91 785
e 91 805
e 91 811
e 91 813
e 91 821
e 91 841
e 91 848
e 91 895
e 91 912
e 91 916
e 91 917
e 91 935
e 91 947
e 91 963
e 91 966
e 91 967
e 91 991
e 92 252
e 92 287
e 92 292
e 92 294
e 92 297
e 92 302
e 92 314
e 92 330
e 92 350
e 92 356
e 92 360
e 92 384
e 92 386
e 92 394
e 92 409
e 92 412
e 92 426
e 92 427
e 92 429
e 92 437
e 92 456
e 92 469
e 92 482
e 92 485
e 92 494
e 92 505
e 92 513
e 92 516
e 92 519
e 92 521
e 92 523
e 92 532
e 92 536
e 92 550
e 92 568
e 92 577
e 92 582
e 92 596
e 92 598
e 92 605
e 92 615
e 92 643
e 92 646
e 92 648
e 92 657
e 92 671
e 92 679
e 92 682
e 92 703
e 92 722
e 92 725
e 92 730
e 92 743
e 92 752
e 92 757
e 92 777
e 92 789
e 92 791
e 92 810
e 92 816
e 92 827
e 92 828
e 92 833
e 92 850
e 92 858
e 92 883
e 92 885
e 92 892
e 92 895
e 92 900
e 92 907
e 92 920
e 92 929
e 92 931
e 92 948
e 92 983
e 92 987
e 92 992
e 92 993
e 92 997
e 92 998
e 93 276
e 93 302
e 93 303
e 93 385
e 93 387
e 93 389
e 93 398
e 93 402
e 93 407
e 93 414
e 93 417
e 93 426
e 93 436
e 93 443
e 93 451
e 93 454
e 93 460
e 93 467
e 93 482
e 93 486
e 93 499
e 93 515
e 93 519
e 93 525
e 93 528
e 93 537
e 93 581
e 93 588
e 93 590
e 93 595
e 93 605
e 93 607
e 93 615
e 93 633
e 93 634
e 93 649
e 93 650
e 93 655
e 93 661
e 93 687
e 93 697
e 93 718
e 93 729
e 93 733
e 93 735
e 93 751
e 93 758
e 93 760
e 93 784
e 93 786
e 93 798
e 93 810
e 93 818
e 93 822
e 93 839
e 93 855
e 93 870
e 93 892
e 93 905
e 93 908
e 93 917
e 93 932
e 93 933
e 93 951
e 93 960
e 93 962
e 93 973
e 93 974
e 93 984
e 93 991
e 93 996
e 94 256
e 94 259
e 94 276
e 94 289
e 94 292
e 94 302
e 94 303
e 94 319
e 94 336
e 94 353
e 94 361
e 94 363
e 94 377
e 94 413
e 94 414
e 94 420
e 94 430
e 94 431
e 94 434
e 94 444
e 94 447
e 94 452
e 94 573
e 94 584
e 94 585
e 94 591
e 94 603
e 94 617
e 94 626
e 94 642
e 94 645
e 94 649
e 94 653
e 94 659
e 94 665
e 94 670
e 94 682
e 94 709
e 94 719
e 94 721
e 94 724
e 94 733
e 94 749
e 94 772
e 94 801
e 94 812
e 94 815
e 94 819
e 94 825
e 94 838
e 94 842
e 94 877
e 94 878
e 94 882
e 94 928
e 94 929
e 94 937
e 94 942
e 94 947
e 94 953
e 94 959
e 94 962
e 94 963
e 94 976
e 94 978
e 94 997
e 95 254
e 95 284
e 95 301
e 95 320
e 95 342
e 95 350
e 95 356
e 95 381
e 95 382
e 95 399
e 95 409
e 95 427
e 95 428
e 95 435
e 95 436
e 95 438
e 95 439
e 95 443
e 95 444
e 95 446
e 95 463
e 95 468
e 95 471
e 95 491
e 95 506
e 95 511
e 95 515
e 95 551
e 95 564
e 95 566
e 95 582
e 95 585
e 95 592
e 95 594
e 95 623
e 95 627
e 95 632
e 95 634
e 95 641
e 95 645
e 95 666
e 95 675
e 95 698
e 95 700
e 95 702
e 95 710
e 95 712
e 95 716
e 95 717
e 95 737
e 95 741
e 95 746
e 95 749
e 95 765
e 95 784
e 95 800
e 95 805
e 95 807
e 95 817
e 95 844
e 95 846
e 95 852
e 95 855
e 95 863
e 95 891
e 95 894
e 95 896
e 95 899
e 95 940
e 95 941
e 95 964
e 95 974
e 95 975
e 95 983
e 96 265
e 96 268
e 96 269
e 96 300
e 96 306
e 96 338
e 96 340
e 96 343
e 96 344
e 96 345
e 96 386
e 96 389
e 96 401
e 96 410
e 96 442
e 96 448
e 96 451
e 96 452
e 96 454
e 96 464
e 96 466
e 96 500
e 96 509
e 96 555
e 96 557
e 96 570
e 96 589
e 96 619
e 96 636
e 96 638
e 96 639
e 96 663
e 96 687
e 96 689
e 96 753
e 96 762
e 96 779
e 96 780
e 96 786
e 96 791
e 96 799
e 96 802
e 96 804
e 96 814
e 96 817
e 96 818
e 96 829
e 96 839
e 96 849
e 96 864
e 96 878
e 96 882
e 96 892
e 96 909
e 96 934
e 96 950
e 96 966
e 96 971
e 96 985
e 97 256
e 97 262
e 97 290
e 97 296
e 97 299
e 97 301
e 97 308
e 97 314
e 97 322
e 97 346
e 97 351
e 97 353
e 97 371
e 97 378
e 97 381
e 97 393
e 97 394
e 97 401
e 97 421
e 97 423
e 97 424
e 97 430
e 97 438
e 97 456
e 97 461
e 97 471
e 97 472
e 97 475
e 97 488
e 97 491
e 97 500
e 97 514
e 97 522
e 97 547
e 97 554
e 97 560
e 97 563
e 97 569
e 97 575
e 97 579
e 97 618
e 97 625
e 97 640
e 97 646
e 97 654
e 97 660
e 97 666
e 97 667
e 97 675
e 97 696
e 97 698
e 97 699
e 97 733
e 97 736
e 97 752
e 97 754
e 97 770
e 97 774
e 97 793
e 97 813
e 97 825
e 97 844
e 97 850
e 97 865
e 97 870
e 97 883
e 97 889
e 97 891
e 97 893
e 97 909
e 97 910
e 97 920
e 97 978
e 97 979
e 97 982
e 97 993
e 97 995
e 98 259
e 98 282
e 98 286
e 98 287
e 98 292
e 98 309
e 98 315
e 98 324
e 98 333
e 98 372
e 98 381
e 98 391
e 98 402
e 98 416
e 98 426
e 98 440
e 98 441
e 98 450
e 98 470
e 98 485
e 98 496
e 98 517
e 98 521
e 98 528
e 98 530
e 98 531
e 98 533
e 98 536
e 98 539
e 98 542
e 98 555
e 98 588
e 98 605
e 98 620
e 98 629
e 98 648
e 98 651
e 98 659
e 98 664
e 98 672
e 98 676
e 98 694
e 98 699
e 98 727
e 98 731
e 98 743
e 98 747
e 98 757
e 98 785
e 98 789
e 98 811
e 98 816
e 98 820
e 98 830
e 98 831
e 98 838
e 98 843
e 98 851
e 98 876
e 98 882
e 98 888
e 98 895
e 98 898
e 98 940
e 98 943
e 98 945
e 98 959
e 98 978
e 98 993
e 98 998
e 99 273
e 99 283
e 99 293
e 99 313
e 99 324
e 99 328
e 99 353
e 99 354
e 99 360
e 99 368
e 99 372
e 99 385
e 99 390
e 99 406
e 99 419
e 99 425
e 99 443
e 99 457
e 99 481
e 99 492
e 99 495
e 99 514
e 99 515
e 99 522
e 99 528
e 99 545
e 99 546
e 99 548
e 99 556
e 99 580
e 99 606
e 99 612
e 99 619
e 99 652
e 99 672
e 99 688
e 99 702
e 99 724
e 99 740
e 99 748
e 99 751
e 99 761
e 99 765
e 99 780
e 99 806
e 99 827
e 99 848
e 99 850
e 99 853
e 99 858
e 99 861
e 99 896
e 99 906
e 99 911
e 99 914
e 99 920
e 99 927
e 99 939
e 99 940
e 99 952
e 99 970
e 99 976
e 99 986
e 99 992
e 99 993
e 99 999
e 100 252
e 100 275
e 100 281
e 100 293
e 100 296
e 100 320
e 100 330
e 100 335
e 100 360
e 100 365
e 100 383
e 100 384
e 100 386
e 100 390
e 100 400
e 100 406
e 100 412
e 100 413
e 100 421
e 100 436
e 100 444
e 100 450
e 100 466
e 100 469
e 100 490
e 100 498
e 100 502
e 100 521
e 100 524
e 100 542
e 100 574
e 100 615
e 100 623
e 100 627
e 100 631
e 100 637
e 100 649
e 100 656
e 100 659
e 100 672
e 100 679
e 100 703
e 100 719
e 100 720
e 100 722
e 100 734
e 100 753
e 100 764
e 100 765
e 100 776
e 100 783
e 100 792
e 100 797
e 100 798
e 100 802
e 100 811
e 100 814
e 100 846
e 100 852
e 100 857
e 100 863
e 100 882
e 100 884
e 100 928
e 100 930
e 100 940
e 100 961
e 100 962
e 100 963
e 100 965
e 100 968
e 101 256
e 101 259
e 101 288
e 101 307
e 101 310
e 101 344
e 101 347
e 101 367
e 101 371
e 101 392
e 101 420
e 101 424
e 101 427
e 101 475
e 101 485
e 101 505
e 101 519
e 101 527
e 101 542
e 101 561
e 101 577
e 101 596
e 101 619
e 101 621
e 101 622
e 101 637
e 101 657
e 101 663
e 101 674
e 101 682
e 101 684
e 101 696
e 101 697
e 101 725
e 101 734
e 101 752
e 101 771
e 101 782
e 101 803
e 101 805
e 101 806
e 101 817
e 101 832
e 101 873
e 101 875
e 101 884
e 101 888
e 101 896
e 101 905
e 101 914
e 101 953
e 101 980
e 101 981
e 101 982
e 101 985
e 101 989
e 101 991
e 101 993
e 102 253
e 102 274
e 102 282
e 102 289
e 102 307
e 102 331
e 102 344
e 102 345
e 102 367
e 102 381
e 102 383
e 102 389
e 102 409
e 102 411
e 102 412
e 102 417
e 102 426
e 102 478
e 102 481
e 102 490
e 102 494
e 102 497
e 102 521
e 102 528
e 102 531
e 102 536
e 102 550
e 102 566
e 102 575
e 102 585
e 102 611
e 102 634
e 102 640
e 102 642
e 102 646
e 102 648
e 102 669
e 102 672
e 102 690
e 102 699
e 102 712
e 102 732
e 102 744
e 102 754
e 102 762
e 102 763
e 102 769
e 102 781
e 102 786
e 102 793
e 102 802
e 102 808
e 102 822
e 102 829
e 102 837
e 102 862
e 102 863
e 102 873
e 102 875
e 102 878
e 102 904
e 102 915
e 102 930
e 102 937
e 102 956
e 102 959
e 102 971
e 102 984
e 102 990
e 102 1000
e 103 259
e 103 260
e 103 262
e 103 287
e 103 300
e 103 302
e 103 304
e 103 323
e 103 324
e 103 327
e 103 339
e 103 352
e 103 369
e 103 399
e 103 409
e 103 427
e 103 429
e 103 455
e 103 459
e 103 466
e 103 467
e 103 485
e 103 487
e 103 503
e 103 528
e 103 534
e 103 567
e 103 587
e 103 595
e 103 614
e 103 623
e 103 626
e 103 637
e 103 641
e 103 648
e 103 653
e 103 667
e 103 676
e 103 687
e 103 691
e 103 702
e 103 704
e 103 734
e 103 748
e 103 751
e 103 757
e 103 758
e 103 762
e 103 772
e 103 781
e 103 787
e 103 788
e 103 799
e 103 802
e 103 803
e 103 805
e 103 811
e 103 826
e 103 834
e 103 843
e 103 849
e 103 852
e 103 854
e 103 858
e 103 860
e 103 864
e 103 871
e 103 918
e 103 925
e 103 928
e 103 935
e 103 941
e 103 964
e 103 973
e 103 974
e 103 976
e 103 986
e 103 989
e 103 993
e 103 995
e 104 252
e 104 260
e 104 283
e 104 294
e 104 318
e 104 320
e 104 322
e 104 334
e 104 352
e 104 365
e 104 369
e 104 384
e 104 413
e 104 415
e 104 435
e 104 436
e 104 443
e 104 460
e 104 475
e 104 489
e 104 493
e 104 495
e 104 510
e 104 511
e 104 517
e 104 519
e 104 538
e 104 550
e 104 564
e 104 565
e 104 580
e 104 583
e 104 585
e 104 586
e 104 590
e 104 594
e 104 595
e 104 598
e 104 608
e 104 610
e 104 616
e 104 658
e 104 671
e 104 677
e 104 719
e 104 723
e 104 731
e 104 733
e 104 735
e 104 742
e 104 752
e 104 755
e 104 756
e 104 763
e 104 770
e 104 771
e 104 777
e 104 789
e 104 795
e 104 805
e 104 812
e 104 814
e 104 868
e 104 872
e 104 874
e 104 882
e 104 883
e 104 900
e 104 903
e 104 920
e 104 927
e 104 933
e 104 944
e 104 956
e 104 977
e 104 978
e 104 995
e 104 998
e 104 1000
e 105 255
e 105 257
e 105 258
e 105 263
e 105 272
e 105 299
e 105 311
e 105 328
e 105 330
e 105 336
e 105 341
e 105 350
e 105 363
e 105 369
e 105 381
e 105 394
e 105 412
e 105 428
e 105 454
e 105 457
e 105 471
e 105 472
e 105 476
e 105 483
e 105 486
e 105 495
e 105 510
e 105 520
e 105 542
e 105 547
e 105 566
e 105 576
e 105 579
e 105 588
e 105 593
e 105 594
e 105 606
e 105 618
e 105 624
e 105 629
e 105 638
e 105 651
e 105 654
e 105 686
e 105 692
e 105 709
e 105 728
e 105 730
e 105 731
e 105 740
e 105 746
e 105 748
e 105 758
e 105 763
e 105 764
e 105 769
e 105 774
e 105 781
e 105 785
e 105 786
e 105 788
e 105 797
e 105 809
e 105 846
e 105 861
e 105 877
e 105 884
e 105 887
e 105 891
e 105 900
e 105 908
e 105 918
e 105 926
e 105 929
e 105 977
e 105 982
e 105 983
e 105 999
e 106 254
e 106 267
e 106 268
e 106 276
e 106 287
e 106 299
e 106 302
e 106 303
e 106 310
e 106 314
e 106 316
e 106 324
e 106 333
e 106 344
e 106 359
e 106 384
e 106 396
e 106 398
e 106 402
e 106 405
e 106 409
e 106 441
e 106 457
e 106 462
e 106 464
e 106 488
e 106 511
e 106 512
e 106 535
e 106 538
e 106 539
e 106 557
e 106 562
e 106 575
e 106 588
e 106 594
e 106 597
e 106 599
e 106 615
e 106 617
e 106 618
e 106 637
e 106 648
e 106 656
e 106 657
e 106 665
e 106 668
e 106 671
e 106 675
e 106 686
e 106 716
e 106 717
e 106 730
e 106 731
e 106 732
e 106 733
e 106 753
e 106 755
e 106 759
e 106 767
e 106 799
e 106 802
e 106 803
e 106 817
e 106 832
e 106 834
e 106 885
e 106 896
e 106 897
e 106 905
e 106 908
e 106 910
e 106 911
e 106 915
e 106 925
e 106 932
e 106 946
e 106 953
e 106 956
e 106 957
e 106 970
e 106 974
e 106 975
e 106 976
e 106 994
e 106 997
e 107 265
e 107 304
e 107 307
e 107 322
e 107 328
e 107 346
e 107 384
e 107 390
e 107 414
e 107 424
e 107 425
e 107 441
e 107 442
e 107 447
e 107 448
e 107 482
e 107 497
e 107 505
e 107 518
e 107 519
e 107 550
e 107 558
e 107 565
e 107 574
e 107 588
e 107 606
e 107 611
e 107 632
e 107 634
e 107 636
e 107 648
e 107 660
e 107 669
e 107 675
e 107 676
e 107 679
e 107 685
e 107 686
e 107 710
e 107 714
e 107 724
e 107 739
e 107 743
e 107 744
e 107 747
e 107 767
e 107 776
e 107 802
e 107 810
e 107 816
e 107 824
e 107 832
e 107 855
e 107 858
e 107 873
e 107 875
e 107 902
e 107 920
e 107 928
e 107 932
e 107 938
e 107 946
e 107 955
e 107 969
e 107 992
e 108 252
e 108 269
e 108 301
e 108 318
e 108 322
e 108 363
e 108 369
e 108 390
e 108 408
e 108 415
e 108 432
e 108 456
e 108 460
e 108 470
e 108 479
e 108 531
e 108 539
e 108 545
e 108 548
e 108 557
e 108 569
e 108 579
e 108 581
e 108 586
e 108 589
e 108 608
e 108 617
e 108 630
e 108 647
e 108 651
e 108 666
e 108 696
e 108 711
e 108 719
e 108 731
e 108 743
e 108 746
e 108 748
e 108 753
e 108 754
e 108 757
e 108 763
e 108 775
e 108 779
e 108 784
e 108 792
e 108 804
e 108 814
e 108 826
e 108 828
e 108 834
e 108 838
e 108 842
e 108 844
e 108 845
e 108 850
e 108 864
e 108 869
e 108 877
e 108 880
e 108 910
e 108 915
e 108 923
e 108 937
e 108 938
e 108 942
e 108 943
e 109 262
e 109 276
e 109 280
e 109 285
e 109 297
e 109 301
e 109 302
e 109 304
e 109 331
e 109 353
e 109 356
e 109 357
e 109 379
e 109 388
e 109 404
e 109 407
e 109 414
e 109 433
e 109 444
e 109 452
e 109 457
e 109 464
e 109 500
e 109 507
e 109 513
e 109 515
e 109 535
e 109 547
e 109 564
e 109 631
e 109 644
e 109 676
e 109 691
e 109 700
e 109 703
e 109 714
e 109 724
e 109 740
e 109 748
e 109 767
e 109 769
e 109 804
e 109 817
e 109 830
e 109 835
e 109 842
e 109 844
e 109 849
e 109 863
e 109 882
e 109 885
e 109 897
e 109 917
e 109 932
e 109 952
e 109 961
e 109 967
e 109 972
e 109 974
e 110 280
e 110 299
e 110 304
e 110 312
e 110 335
e 110 339
e 110 359
e 110 361
e 110 362
e 110 366
e 110 374
e 110 391
e 110 393
e 110 394
e 110 413
e 110 415
e 110 436
e 110 455
e 110 494
e 110 513
e 110 514
e 110 526
e 110 534
e 110 540
e 110 543
e 110 550
e 110 553
e 110 556
e 110 571
e 110 603
e 110 608
e 110 613
e 110 654
e 110 693
e 110 696
e 110 713
e 110 727
e 110 736
e 110 744
e 110 747
e 110 751
e 110 754
e 110 758
e 110 766
e 110 779
e 110 785
e 110 795
e 110 803
e 110 827
e 110 854
e 110 855
e 110 856
e 110 861
e 110 866
e 110 874
e 110 875
e 110 897
e 110 900
e 110 906
e 110 909
e 110 916
e 110 920
e 110 931
e 110 956
e 110 965
e 110 966
e 110 994
e 110 995
e 111 255
e 111 269
e 111 293
e 111 299
e 111 308
e 111 312
e 111 315
e 111 349
e 111 353
e 111 379
e 111 382
e 111 400
e 111 457
e 111 485
e 111 497
e 111 498
e 111 510
e 111 519
e 111 525
e 111 571
e 111 577
e 111 583
e 111 600
e 111 613
e 111 614
e 111 623
e 111 628
e 111 629
e 111 632
e 111 640
e 111 641
e 111 643
e 111 647
e 111 651
e 111 691
e 111 693
e 111 700
e 111 712
e 111 721
e 111 723
e 111 766
e 111 767
e 111 768
e 111 782
e 111 783
e 111 784
e 111 820
e 111 842
e 111 846
e 111 857
e 111 866
e 111 881
e 111 882
e 111 885
e 111 889
e 111 891
e 111 900
e 111 901
e 111 902
e 111 915
e 111 929
e 111 935
e 111 950
e 111 952
e 111 958
e 111 959
e 111 963
e 111 965
e 111 976
e 111 977
e 111 986
e 111 991
e 111 995
e 111 996
e 111 998
e 111 1000
e 112 257
e 112 260
e 112 271
e 112 288
e 112 301
e 112 311
e 112 317
e 112 351
e 112 356
e 112 359
e 112 360
e 112 361
e 112 375
e 112 377
e 112 384
e 112 393
e 112 395
e 112 406
e 112 424
e 112 426
e 112 432
e 112 434
e 112 442
e 112 454
e 112 462
e 112 463
e 112 469
e 112 477
e 112 515
e 112 518
e 112 537
e 112 555
e 112 569
e 112 574
e 112 606
e 112 613
e 112 623
e 112 641
e 112 661
e 112 664
e 112 666
e 112 682
e 112 693
e 112 715
e 112 738
e 112 754
e 112 765
e 112 792
e 112 796
e 112 815
e 112 842
e 112 856
e 112 862
e 112 869
e 112 873
e 112 888
e 112 901
e 112 905
e 112 916
e 112 936
e 112 937
e 112 945
e 112 951
e 112 960
e 112 975
e 113 252
e 113 267
e 113 282
e 113 296
e 113 333
e 113 336
e 113 340
e 113 344
e 113 352
e 113 357
e 113 358
e 113 363
e 113 368
e 113 387
e 113 388
e 113 389
e 113 397
e 113 400
e 113 423
e 113 434
e 113 451
e 113 454
e 113 470
e 113 476
e 113 477
e 113 481
e 113 482
e 113 521
e 113 532
e 113 546
e 113 559
e 113 561
e 113 564
e 113 565
e 113 569
e 113 572
e 113 574
e 113 595
e 113 598
e 113 610
e 113 624
e 113 628
e 113 638
e 113 654
e 113 676
e 113 678
e 113 679
e 113 690
e 113 703
e 113 724
e 113 757
e 113 760
e 113 795
e 113 800
e 113 814
e 113 837
e 113 871
e 113 879
e 113 899
e 113 923
e 113 925
e 113 932
e 113 936
e 113 987
e 113 1000
e 114 251
e 114 254
e 114 263
e 114 264
e 114 271
e 114 274
e 114 288
e 114 293
e 114 301
e 114 313
e 114 316
e 114 351
e 114 362
e 114 382
e 114 394
e 114 402
e 114 405
e 114 477
e 114 478
e 114 483
e 114 487
e 114 488
e 114 498
e 114 510
e 114 554
e 114 555
e 114 556
e 114 558
e 114 582
e 114 587
e 114 589
e 114 592
e 114 594
e 114 600
e 114 607
e 114 608
e 114 609
e 114 613
e 114 624
e 114 629
e 114 640
e 114 649
e 114 653
e 114 655
e 114 709
e 114 711
e 114 725
e 114 731
e 114 735
e 114 737
e 114 738
e 114 746
e 114 765
e 114 784
e 114 792
e 114 794
e 114 798
e 114 799
e 114 801
e 114 811
e 114 822
e 114 827
e 114 831
e 114 836
e 114 838
e 114 847
e 114 855
e 114 857
e 114 862
e 114 891
e 114 910
e 114 918
e 114 922
e 114 932
e 114 960
e 114 985
e 114 992
e 114 993
e 114 994
e 114 1000
e 115 287
e 115 299
e 115 302
e 115 304
e 115 323
e 115 331
e 115 335
e 115 339
e 115 346
e 115 361
e 115 367
e 115 369
e 115 384
e 115 391
e 115 398
e 115 406
e 115 408
e 115 411
e 115 419
e 115 430
e 115 433
e 115 440
e 115 442
e 115 453
e 115 468
e 115 471
e 115 477
e 115 480
e 115 493
e 115 500
e 115 501
e 115 526
e 115 536
e 115 548
e 115 551
e 115 557
e 115 561
e 115 562
e 115 564
e 115 568
e 115 569
e 115 591
e 115 623
e 115 627
e 115 638
e 115 645
e 115 650
e 115 664
e 115 666
e 115 672
e 115 673
e 115 677
e 115 714
e 115 720
e 115 723
e 115 724
e 115 736
e 115 743
e 115 747
e 115 793
e 115 795
e 115 824
e 115 836
e 115 845
e 115 850
e 115 860
e 115 924
e 115 932
e 115 933
e 115 939
e 115 950
e 115 962
e 115 965
e 115 974
e 115 975
e 115 983
e 115 992
e 115 995
e 115 997
e 116 260
e 116 263
e 116 278
e 116 281
e 116 286
e 116 297
e 116 300
e 116 301
e 116 304
e 116 308
e 116 358
e 116 359
e 116 361
e 116 364
e 116 369
e 116 378
e 116 383
e 116 391
e 116 393
e 116 414
e 116 415
e 116 429
e 116 430
e 116 431
e 116 449
e 116 458
e 116 470
e 116 478
e 116 486
e 116 510
e 116 521
e 116 537
e 116 539
e 116 550
e 116 559
e 116 567
e 116 571
e 116 577
e 116 585
e 116 600
e 116 603
e 116 606
e 116 607
e 116 610
e 116 635
e 116 636
e 116 648
e 116 649
e 116 675
e 116 695
e 116 722
e 116 725
e 116 732
e 116 737
e 116 738
e 116 749
e 116 753
e 116 783
e 116 791
e 116 794
e 116 807
e 116 808
e 116 811
e 116 814
e 116 826
e 116 837
e 116 858
e 116 865
e 116 877
e 116 902
e 116 908
e 116 921
e 116 947
e 116 950
e 116 963
e 116 977
e 116 980
e 117 256
e 117 260
e 117 264
e 117 265
e 117 271
e 117 272
e 117 280
e 117 288
e 117 292
e 117 296
e 117 311
e 117 317
e 117 319
e 117 322
e 117 339
e 117 350
e 117 398
e 117 399
e 117 409
e 117 425
e 117 432
e 117 449
e 117 456
e 117 459
e 117 460
e 117 465
e 117 468
e 117 487
e 117 499
e 117 521
e 117 530
e 117 538
e 117 541
e 117 553
e 117 592
e 117 601
e 117 616
e 117 627
e 117 637
e 117 658
e 117 664
e 117 665
e 117 670
e 117 679
e 117 696
e 117 709
e 117 710
e 117 727
e 117 728
e 117 730
e 117 741
e 117 743
e 117 745
e 117 767
e 117 771
e 117 790
e 117 792
e 117 793
e 117 801
e 117 813
e 117 835
e 117 840
e 117 841
e 117 849
e 117 860
e 117 863
e 117 879
e 117 883
e 117 892
e 117 923
e 117 929
e 117 931
e 117 948
e 117 961
e 117 971
e 117 972
e 117 977
e 117 985
e 118 266
e 118 271
e 118 284
e 118 287
e 118 295
e 118 300
e 118 314
e 118 317
e 118 327
e 118 357
e 118 363
e 118 364
e 118 370
e 118 385
e 118 401
e 118 405
e 118 408
e 118 409
e 118 410
e 118 421
e 118 458
e 118 460
e 118 472
e 118 478
e 118 483
e 118 505
e 118 519
e 118 523
e 118 525
e 118 532
e 118 544
e 118 547
e 118 548
e 118 578
e 118 614
e 118 615
e 118 621
e 118 622
e 118 642
e 118 659
e 118 663
e 118 685
e 118 697
e 118 699
e 118 702
e 118 716
e 118 729
e 118 737
e 118 744
e 118 754
e 118 755
e 118 768
e 118 769
e 118 779
e 118 798
e 118 807
e 118 825
e 118 849
e 118 872
e 118 873
e 118 883
e 118 885
e 118 890
e 118 892
e 118 910
e 118 920
e 118 923
e 118 927
e 118 941
e 118 946
e 118 972
e 118 996
e 119 252
e 119 253
e 119 276
e 119 286
e 119 303
e 119 304
e 119 308
e 119 313
e 119 314
e 119 322
e 119 336
e 119 339
e 119 344
e 119 362
e 119 364
e 119 371
e 119 383
e 119 390
e 119 392
e 119 395
e 119 396
e 119 402
e 119 403
e 119 407
e 119 412
e 119 417
e 119 420
e 119 422
e 119 424
e 119 446
e 119 451
e 119 463
e 119 475
e 119 503
e 119 504
e 119 505
e 119 516
e 119 527
e 119 535
e 119 536
e 119 543
e 119 563
e 119 574
e 119 581
e 119 622
e 119 623
e 119 632
e 119 659
e 119 660
e 119 662
e 119 684
e 119 700
e 119 736
e 119 737
e 119 746
e 119 755
e 119 768
e 119 791
e 119 792
e 119 804
e 119 815
e 119 823
e 119 836
e 119 847
e 119 859
e 119 876
e 119 878
e 119 879
e 119 883
e 119 898
e 119 905
e 119 909
e 119 921
e 119 924
e 119 935
e 119 949
e 119 957
e 119 963
e 119 974
e 119 983
e 119 984
e 119 992
e 119 999
e 119 1000
e 120 259
e 120 265
e 120 282
e 120 286
e 120 326
e 120 332
e 120 334
e 120 341
e 120 345
e 120 347
e 120 366
e 120 368
e 120 370
e 120 373
e 120 379
e 120 390
e 120 395
e 120 442
e 120 444
e 120 460
e 120 472
e 120 487
e 120 502
e 120 512
e 120 518
e 120 519
e 120 547
e 120 548
e 120 558
e 120 573
e 120 578
e 120 585
e 120 608
e 120 647
e 120 667
e 120 668
e 120 673
e 120 717
e 120 718
e 120 732
e 120 733
e 120 735
e 120 741
e 120 751
e 120 757
e 120 771
e 120 774
e 120 784
e 120 787
e 120 803
e 120 807
e 120 813
e 120 843
e 120 847
e 120 857
e 120 867
e 120 880
e 120 891
e 120 896
e 120 898
e 120 902
e 120 911
e 120 913
e 120 956
e 120 959
e 120 970
e 120 975
e 120 977
e 120 983
e 120 991
e 120 999
e 121 288
e 121 290
e 121 300
e 121 312
e 121 332
e 121 356
e 121 361
e 121 377
e 121 380
e 121 422
e 121 424
e 121 432
e 121 435
e 121 459
e 121 467
e 121 471
e 121 473
e 121 501
e 121 506
e 121 510
e 121 529
e 121 545
e 121 555
e 121 562
e 121 567
e 121 574
e 121 575
e 121 580
e 121 585
e 121 592
e 121 593
e 121 594
e 121 607
e 121 616
e 121 622
e 121 641
e 121 654
e 121 671
e 121 678
e 121 694
e 121 704
e 121 719
e 121 746
e 121 752
e 121 754
e 121 755
e 121 757
e 121 780
e 121 784
e 121 785
e 121 786
e 121 787
e 121 801
e 121 815
e 121 829
e 121 852
e 121 875
e 121 881
e 121 882
e 121 885
e 121 886
e 121 904
e 121 906
e 121 941
e 121 947
e 121 954
e 121 962
e 121 963
e 121 974
e 121 976
e 121 989
e 121 996
e 121 998
e 122 253
e 122 284
e 122 293
e 122 309
e 122 322
e 122 323
e 122 369
e 122 385
e 122 390
e 122 405
e 122 407
e 122 409
e 122 418
e 122 438
e 122 440
e 122 453
e 122 462
e 122 482
e 122 489
e 122 490
e 122 493
e 122 497
e 122 500
e 122 523
e 122 535
e 122 537
e 122 540
e 122 544
e 122 556
e 122 575
e 122 601
e 122 602
e 122 603
e 122 604
e 122 614
e 122 615
e 122 641
e 122 644
e 122 655
e 122 658
e 122 660
e 122 664
e 122 670
e 122 683
e 122 688
e 122 697
e 122 699
e 122 700
e 122 737
e 122 741
e 122 742
e 122 743
e 122 749
e 122 767
e 122 769
e 122 772
e 122 803
e 122 830
e 122 831
e 122 838
e 122 846
e 122 857
e 122 858
e 122 863
e 122 867
e 122 868
e 122 887
e 122 909
e 122 916
e 122 937
e 122 964
e 122 983
e 122 997
e 122 998
e 122 999
e 123 285
e 123 333
e 123 345
e 123 355
e 123 375
e 123 385
e 123 389
e 123 397
e 123 408
e 123 428
e 123 432
e 123 441
e 123 443
e 123 444
e 123 447
e 123 449
e 123 475
e 123 476
e 123 481
e 123 483
e 123 487
e 123 488
e 123 491
e 123 497
e 123 507
e 123 509
e 123 517
e 123 522
e 123 531
e 123 537
e 123 541
e 123 570
e 123 578
e 123 584
e 123 592
e 123 593
e 123 595
e 123 599
e 123 608
e 123 611
e 123 612
e 123 627
e 123 636
e 123 652
e 123 657
e 123 673
e 123 674
e 123 677
e 123 707
e 123 717
e 123 724
e 123 725
e 123 742
e 123 749
e 123 762
e 123 774
e 123 776
e 123 784
e 123 788
e 123 796
e 123 811
e 123 818
e 123 836
e 123 859
e 123 866
e 123 883
e 123 904
e 123 908
e 123 912
e 123 938
e 123 958
e 123 961
e 123 985
e 123 993
e 123 997
e 124 267
e 124 274
e 124 275
e 124 280
e 124 293
e 124 301
e 124 316
e 124 331
e 124 346
e 124 358
e 124 363
e 124 367
e 124 375
e 124 378
e 124 404
e 124 415
e 124 416
e 124 425
e 124 456
e 124 460
e 124 467
e 124 469
e 124 482
e 124 499
e 124 502
e 124 505
e 124 508
e 124 525
e 124 535
e 124 541
e 124 573
e 124 580
e 124 606
e 124 619
e 124 635
e 124 639
e 124 651
e 124 663
e 124 678
e 124 684
e 124 711
e 124 741
e 124 742
e 124 754
e 124 774
e 124 781
e 124 788
e 124 794
e 124 802
e 124 861
e 124 885
e 124 888
e 124 897
e 124 911
e 124 934
e 124 935
e 124 947
e 124 965
e 124 966
e 124 972
e 124 975
e 124 976
e 124 989
e 124 998
e 124 999
e 125 254
e 125 256
e 125 284
e 125 323
e 125 329
e 125 335
e 125 336
e 125 337
e 125 351
e 125 352
e 125 358
e 125 359
e 125 375
e 125 382
e 125 392
e 125 399
e 125 407
e 125 415
e 125 420
e 125 432
e 125 433
e 125 434
e 125 457
e 125 458
e 125 462
e 125 467
e 125 470
e 125 474
e 125 479
e 125 483
e 125 484
e 125 504
e 125 524
e 125 532
e 125 538
e 125 546
e 125 604
e 125 627
e 125 630
e 125 636
e 125 638
e 125 642
e 125 647
e 125 662
e 125 670
e 125 674
e 125 679
e 125 682
e 125 687
e 125 699
e 125 713
e 125 715
e 125 721
e 125 726
e 125 728
e 125 731
e 125 737
e 125 756
e 125 757
e 125 773
e 125 781
e 125 784
e 125 794
e 125 831
e 125 836
e 125 837
e 125 843
e 125 860
e 125 863
e 125 868
e 125 874
e 125 876
e 125 878
e 125 891
e 125 905
e 125 906
e 125 919
e 125 922
e 125 932
e 125 936
e 125 947
e 125 948
e 125 949
e 125 975
e 125 981
e 125 992
e 125 994
e 126 253
e 126 265
e 126 268
e 126 275
e 126 277
e 126 280
e 126 285
e 126 295
e 126 297
e 126 303
e 126 311
e 126 315
e 126 326
e 126 344
e 126 349
e 126 363
e 126 366
e 126 385
e 126 386
e 126 392
e 126 396
e 126 435
e 126 443
e 126 459
e 126 472
e 126 480
e 126 481
e 126 489
e 126 492
e 126 499
e 126 505
e 126 512
e 126 513
e 126 531
e 126 535
e 126 538
e 126 546
e 126 551
e 126 557
e 126 566
e 126 577
e 126 585
e 126 643
e 126 659
e 126 667
e 126 678
e 126 684
e 126 705
e 126 707
e 126 711
e 126 729
e 126 732
e 126 743
e 126 744
e 126 746
e 126 755
e 126 757
e 126 768
e 126 774
e 126 789
e 126 798
e 126 799
e 126 817
e 126 823
e 126 835
e 126 845
e 126 854
e 126 861
e 126 862
e 126 863
e 126 864
e 126 872
e 126 873
e 126 877
e 126 882
e 126 884
e 126 911
e 126 920
e 126 925
e 126 931
e 126 934
e 126 950
e 126 981
e 126 982
e 126 996
e 126 1000
e 127 293
e 127 299
e 127 307
e 127 325
e 127 339
e 127 344
e 127 353
e 127 367
e 127 374
e 127 385
e 127 403
e 127 408
e 127 420
e 127 423
e 127 432
e 127 452
e 127 460
e 127 467
e 127 480
e 127 508
e 127 519
e 127 530
e 127 547
e 127 548
e 127 556
e 127 571
e 127 597
e 127 604
e 127 605
e 127 608
e 127 609
e 127 647
e 127 663
e 127 676
e 127 683
e 127 724
e 127 746
e 127 757
e 127 768
e 127 798
e 127 799
e 127 803
e 127 822
e 127 827
e 127 829
e 127 832
e 127 843
e 127 848
e 127 868
e 127 873
e 127 877
e 127 887
e 127 906
e 127 909
e 127 930
e 127 962
e 127 968
e 127 970
e 127 971
e 127 992
e 128 251
e 128 252
e 128 266
e 128 273
e 128 287
e 128 298
e 128 299
e 128 301
e 128 308
e 128 314
e 128 319
e 128 342
e 128 345
e 128 367
e 128 398
e 128 410
e 128 420
e 128 421
e 128 439
e 128 467
e 128 468
e 128 469
e 128 470
e 128 471
e 128 472
e 128 479
e 128 486
e 128 505
e 128 508
e 128 519
e 128 524
e 128 528
e 128 529
e 128 544
e 128 586
e 128 591
e 128 605
e 128 625
e 128 631
e 128 632
e 128 646
e 128 658
e 128 666
e 128 672
e 128 680
e 128 693
e 128 704
e 128 726
e 128 728
e 128 729
e 128 731
e 128 739
e 128 745
e 128 751
e 128 754
e 128 760
e 128 765
e 128 775
e 128 776
e 128 790
e 128 800
e 128 828
e 128 834
e 128 850
e 128 851
e 128 869
e 128 884
e 128 885
e 128 891
e 128 893
e 128 911
e 128 940
e 128 961
e 128 988
e 128 993
e 128 997
e 129 251
e 129 268
e 129 321
e 129 322
e 129 326
e 129 327
e 129 353
e 129 359
e 129 362
e 129 373
e 129 378
e 129 402
e 129 403
e 129 411
e 129 416
e 129 420
e 129 439
e 129 442
e 129 460
e 129 477
e 129 488
e 129 496
e 129 497
e 129 502
e 129 519
e 129 530
e 129 532
e 129 536
e 129 554
e 129 560
e 129 571
e 129 582
e 129 588
e 129 596
e 129 598
e 129 604
e 129 621
e 129 627
e 129 635
e 129 647
e 129 668
e 129 669
e 129 682
e 129 707
e 129 713
e 129 717
e 129 720
e 129 743
e 129 744
e 129 750
e 129 755
e 129 775
e 129 779
e 129 781
e 129 783
e 129 790
e 129 805
e 129 807
e 129 808
e 129 832
e 129 848
e 129 849
e 129 857
e 129 865
e 129 873
e 129 884
e 129 885
e 129 886
e 129 887
e 129 897
e 129 919
e 129 926
e 129 930
e 129 937
e 129 949
e 129 953
e 129 965
e 129 972
e 130 264
e 130 281
e 130 285
e 130 286
e 130 287
e 130 313
e 130 316
e 130 325
e 130 328
e 130 365
e 130 383
e 130 389
e 130 396
e 130 400
e 130 408
e 130 409
e 130 410
e 130 411
e 130 431
e 130 448
e 130 456
e 130 467
e 130 468
e 130 470
e 130 480
e 130 483
e 130 500
e 130 511
e 130 530
e 130 533
e 130 538
e 130 549
e 130 550
e 130 573
e 130 575
e 130 594
e 130 601
e 130 607
e 130 627
e 130 648
e 130 662
e 130 682
e 130 689
e 130 692
e 130 704
e 130 709
e 130 717
e 130 721
e 130 723
e 130 739
e 130 756
e 130 760
e 130 773
e 130 782
e 130 796
e 130 798
e 130 802
e 130 817
e 130 818
e 130 822
e 130 847
e 130 849
e 130 850
e 130 857
e 130 858
e 130 860
e 130 874
e 130 895
e 130 919
e 130 978
e 130 986
e 131 256
e 131 259
e 131 267
e 131 273
e 131 293
e 131 305
e 131 309
e 131 320
e 131 330
e 131 332
e 131 333
e 131 352
e 131 378
e 131 380
e 131 407
e 131 415
e 131 425
e 131 440
e 131 446
e 131 457
e 131 468
e 131 480
e 131 491
e 131 521
e 131 525
e 131 526
e 131 566
e 131 577
e 131 589
e 131 601
e 131 604
e 131 607
e 131 610
e 131 616
e 131 621
e 131 626
e 131 637
e 131 638
e 131 640
e 131 649
e 131 656
e 131 683
e 131 690
e 131 706
e 131 708
e 131 716
e 131 730
e 131 739
e 131 747
e 131 779
e 131 804
e 131 828
e 131 831
e 131 856
e 131 865
e 131 867
e 131 876
e 131 880
e 131 894
e 131 913
e 131 926
e 131 928
e 131 930
e 131 963
e 131 968
e 132 253
e 132 257
e 132 277
e 132 321
e 132 323
e 132 336
e 132 339
e 132 341
e 132 345
e 132 358
e 132 384
e 132 403
e 132 410
e 132 412
e 132 418
e 132 426
e 132 432
e 132 451
e 132 455
e 132 465
e 132 478
e 132 494
e 132 495
e 132 503
e 132 543
e 132 557
e 132 561
e 132 565
e 132 600
e 132 603
e 132 608
e 132 612
e 132 637
e 132 646
e 132 658
e 132 675
e 132 685
e 132 697
e 132 701
e 132 712
e 132 721
e 132 737
e 132 744
e 132 747
e 132 753
e 132 764
e 132 766
e 132 768
e 132 779
e 132 789
e 132 802
e 132 810
e 132 815
e 132 818
e 132 830
e 132 835
e 132 843
e 132 862
e 132 866
e 132 870
e 132 874
e 132 882
e 132 886
e 132 890
e 132 908
e 132 913
e 132 915
e 132 933
e 132 937
e 132 954
e 132 965
e 132 973
e 132 974
e 132 981
e 132 984
e 132 986
e 133 254
e 133 258
e 133 261
e 133 262
e 133 264
e 133 265
e 133 277
e 133 278
e 133 281
e 133 293
e 133 294
e 133 301
e 133 313
e 133 315
e 133 319
e 133 325
e 133 328
e 133 331
e 133 334
e 133 347
e 133 365
e 133 376
e 133 381
e 133 382
e 133 387
e 133 434
e 133 453
e 133 455
e 133 461
e 133 467
e 133 471
e 133 481
e 133 485
e 133 500
e 133 520
e 133 525
e 133 543
e 133 544
e 133 549
e 133 570
e 133 571
e 133 572
e 133 575
e 133 576
e 133 578
e 133 623
e 133 630
e 133 677
e 133 690
e 133 695
e 133 700
e 133 761
e 133 782
e 133 791
e 133 794
e 133 803
e 133 805
e 133 809
e 133 810
e 133 817
e 133 847
e 133 856
e 133 865
e 133 894
e 133 903
e 133 904
e 133 906
e 133 911
e 133 925
e 133 932
e 133 934
e 133 985
e 133 988
e 133 1000
e 134 260
e 134 288
e 134 291
e 134 293
e 134 294
e 134 305
e 134 329
e 134 332
e 134 338
e 134 344
e 134 346
e 134 357
e 134 386
e 134 390
e 134 406
e 134 407
e 134 412
e 134 414
e 134 424
e 134 425
e 134 426
e 134 448
e 134 460
e 134 470
e 134 476
e 134 479
e 134 489
e 134 496
e 134 504
e 134 506
e 134 511
e 134 518
e 134 521
e 134 576
e 134 578
e 134 600
e 134 612
e 134 633
e 134 651
e 134 655
e 134 656
e 134 662
e 134 687
e 134 702
e 134 724
e 134 735
e 134 753
e 134 760
e 134 765
e 134 788
e 134 804
e 134 836
e 134 849
e 134 854
e 134 859
e 134 871
e 134 876
e 134 880
e 134 885
e 134 893
e 134 899
e 134 907
e 134 922
e 134 949
e 134 957
e 134 978
e 134 980
e 135 254
e 135 260
e 135 269
e 135 272
e 135 279
e 135 290
e 135 296
e 135 300
e 135 302
e 135 311
e 135 320
e 135 330
e 135 332
e 135 340
e 135 345
e 135 355
e 135 361
e 135 365
e 135 369
e 135 375
e 135 377
e 135 385
e 135 397
e 135 409
e 135 410
e 135 418
e 135 422
e 135 458
e 135 478
e 135 483
e 135 495
e 135 496
e 135 499
e 135 500
e 135 517
e 135 523
e 135 535
e 135 537
e 135 540
e 135 551
e 135 576
e 135 594
e 135 610
e 135 621
e 135 626
e 135 629
e 135 634
e 135 642
e 135 660
e 135 662
e 135 673
e 135 700
e 135 720
e 135 727
e 135 733
e 135 735
e 135 740
e 135 749
e 135 770
e 135 772
e 135 784
e 135 786
e 135 790
e 135 794
e 135 820
e 135 823
e 135 828
e 135 835
e 135 843
e 135 847
e 135 854
e 135 862
e 135 869
e 135 873
e 135 875
e 135 880
e 135 883
e 135 884
e 135 892
e 135 898
e 135 926
e 135 949
e 135 962
e 135 976
e 135 980
e 135 988
e 136 254
e 136 264
e 136 269
e 136 295
e 136 302
e 136 306
e 136 310
e 136 341
e 136 362
e 136 404
e 136 405
e 136 447
e 136 451
e 136 480
e 136 492
e 136 525
e 136 568
e 136 578
e 136 584
e 136 589
e 136 604
e 136 605
e 136 624
e 136 630
e 136 643
e 136 644
e 136 645
e 136 657
e 136 669
e 136 682
e 136 684
e 136 687
e 136 689
e 136 709
e 136 711
e 136 719
e 136 720
e 136 737
e 136 744
e 136 747
e 136 748
e 136 767
e 136 768
e 136 770
e 136 775
e 136 790
e 136 802
e 136 805
e 136 823
e 136 838
e 136 849
e 136 851
e 136 853
e 136 859
e 136 862
e 136 878
e 136 882
e 136 889
e 136 899
e 136 906
e 136 911
e 136 939
e 136 940
e 136 950
e 136 981
e 136 990
e 136 995
e 136 1000
e 137 259
e 137 269
e 137 297
e 137 304
e 137 306
e 137 310
e 137 322
e 137 341
e 137 362
e 137 365
e 137 366
e 137 383
e 137 395
e 137 398
e 137 401
e 137 424
e 137 435
e 137 444
e 137 455
e 137 460
e 137 482
e 137 491
e 137 492
e 137 493
e 137 522
e 137 526
e 137 546
e 137 555
e 137 566
e 137 567
e 137 575
e 137 592
e 137 616
e 137 618
e 137 655
e 137 657
e 137 662
e 137 663
e 137 671
e 137 676
e 137 678
e 137 717
e 137 724
e 137 727
e 137 744
e 137 783
e 137 784
e 137 799
e 137 812
e 137 817
e 137 837
e 137 848
e 137 874
e 137 882
e 137 893
e 137 900
e 137 904
e 137 908
e 137 921
e 137 940
e 137 951
e 137 979
e 137 982
e 137 994
e 138 278
e 138 280
e 138 299
e 138 351
e 138 354
e 138 358
e 138 367
e 138 368
e 138 369
e 138 371
e 138 416
e 138 419
e 138 420
e 138 421
e 138 426
e 138 438
e 138 461
e 138 479
e 138 488
e 138 501
e 138 516
e 138 519
e 138 525
e 138 537
e 138 540
e 138 545
e 138 552
e 138 571
e 138 578
e 138 584
e 138 604
e 138 617
e 138 641
e 138 649
e 138 655
e 138 657
e 138 668
e 138 673
e 138 675
e 138 679
e 138 686
e 138 692
e 138 712
e 138 714
e 138 722
e 138 727
e 138 738
e 138 743
e 138 747
e 138 751
e 138 757
e 138 763
e 138 770
e 138 772
e 138 776
e 138 779
e 138 780
e 138 795
e 138 797
e 138 807
e 138 819
e 138 821
e 138 827
e 138 831
e 138 852
e 138 865
e 138 869
e 138 879
e 138 884
e 138 889
e 138 906
e 138 921
e 138 951
e 138 952
e 138 961
e 138 975
e 138 978
e 138 980
e 138 985
e 138 995
e 139 261
e 139 275
e 139 281
e 139 284
e 139 306
e 139 311
e 139 314
e 139 325
e 139 333
e 139 343
e 139 349
e 139 361
e 139 366
e 139 394
e 139 415
e 139 433
e 139 438
e 139 446
e 139 458
e 139 463
e 139 482
e 139 487
e 139 490
e 139 491
e 139 504
e 139 510
e 139 518
e 139 521
e 139 550
e 139 571
e 139 578
e 139 584
e 139 588
e 139 611
e 139 618
e 139 625
e 139 661
e 139 667
e 139 673
e 139 688
e 139 701
e 139 714
e 139 731
e 139 766
e 139 779
e 139 780
e 139 793
e 139 799
e 139 811
e 139 815
e 139 826
e 139 828
e 139 842
e 139 849
e 139 858
e 139 860
e 139 866
e 139 883
e 139 898
e 139 903
e 139 907
e 139 917
e 139 936
e 139 944
e 139 947
e 139 958
e 139 967
e 139 978
e 139 990
e 139 992
e 139 993
e 140 290
e 140 314
e 140 332
e 140 337
e 140 349
e 140 354
e 140 369
e 140 382
e 140 383
e 140 391
e 140 394
e 140 398
e 140 400
e 140 401
e 140 406
e 140 408
e 140 409
e 140 429
e 140 432
e 140 467
e 140 476
e 140 477
e 140 479
e 140 490
e 140 493
e 140 503
e 140 505
e 140 506
e 140 507
e 140 512
e 140 515
e 140 532
e 140 542
e 140 555
e 140 557
e 140 585
e 140 599
e 140 628
e 140 638
e 140 667
e 140 681
e 140 699
e 140 709
e 140 714
e 140 722
e 140 726
e 140 728
e 140 730
e 140 738
e 140 755
e 140 763
e 140 765
e 140 771
e 140 780
e 140 792
e 140 814
e 140 819
e 140 833
e 140 850
e 140 856
e 140 858
e 140 870
e 140 881
e 140 897
e 140 899
e 140 900
e 140 903
e 140 905
e 140 910
e 140 911
e 140 927
e 140 929
e 140 930
e 140 946
e 140 950
e 141 251
e 141 262
e 141 280
e 141 286
e 141 300
e 141 312
e 141 333
e 141 357
e 141 372
e 141 382
e 141 402
e 141 408
e 141 409
e 141 417
e 141 424
e 141 426
e 141 428
e 141 442
e 141 446
e 141 454
e 141 459
e 141 484
e 141 495
e 141 504
e 141 513
e 141 514
e 141 515
e 141 516
e 141 537
e 141 540
e 141 546
e 141 552
e 141 577
e 141 585
e 141 597
e 141 601
e 141 605
e 141 619
e 141 620
e 141 624
e 141 661
e 141 671
e 141 676
e 141 688
e 141 695
e 141 724
e 141 726
e 141 747
e 141 756
e 141 762
e 141 772
e 141 778
e 141 779
e 141 785
e 141 834
e 141 852
e 141 868
e 141 869
e 141 881
e 141 891
e 141 909
e 141 919
e 141 924
e 141 929
e 141 930
e 141 947
e 141 963
e 141 966
e 141 975
e 141 982
e 141 984
e 141 986
e 141 991
e 142 252
e 142 265
e 142 282
e 142 299
e 142 300
e 142 307
e 142 322
e 142 348
e 142 356
e 142 358
e 142 364
e 142 370
e 142 396
e 142 397
e 142 410
e 142 425
e 142 430
e 142 443
e 142 449
e 142 459
e 142 468
e 142 494
e 142 507
e 142 521
e 142 522
e 142 527
e 142 536
e 142 551
e 142 556
e 142 564
e 142 608
e 142 609
e 142 631
e 142 641
e 142 648
e 142 652
e 142 656
e 142 662
e 142 672
e 142 688
e 142 697
e 142 716
e 142 719
e 142 750
e 142 759
e 142 760
e 142 761
e 142 765
e 142 771
e 142 781
e 142 782
e 142 793
e 142 795
e 142 800
e 142 804
e 142 820
e 142 834
e 142 845
e 142 859
e 142 882
e 142 893
e 142 898
e 142 918
e 142 920
e 142 927
e 142 942
e 142 944
e 142 956
e 142 960
e 142 994
e 143 251
e 143 266
e 143 281
e 143 289
e 143 294
e 143 308
e 143 309
e 143 324
e 143 332
e 143 341
e 143 346
e 143 375
e 143 392
e 143 403
e 143 411
e 143 418
e 143 420
e 143 437
e 143 446
e 143 480
e 143 487
e 143 495
e 143 502
e 143 511
e 143 519
e 143 534
e 143 538
e 143 541
e 143 550
e 143 563
e 143 573
e 143 576
e 143 581
e 143 605
e 143 606
e 143 633
e 143 652
e 143 654
e 143 658
e 143 688
e 143 691
e 143 711
e 143 724
e 143 741
e 143 772
e 143 785
e 143 786
e 143 800
e 143 807
e 143 816
e 143 823
e 143 828
e 143 836
e 143 840
e 143 850
e 143 852
e 143 872
e 143 878
e 143 909
e 143 911
e 143 912
e 143 933
e 143 937
e 143 938
e 143 943
e 143 951
e 143 953
e 143 956
e 143 963
e 143 968
e 143 970
e 143 974
e 143 978
e 143 984
e 143 985
e 144 260
e 144 261
e 144 264
e 144 266
e 144 267
e 144 286
e 144 290
e 144 292
e 144 295
e 144 307
e 144 317
e 144 324
e 144 341
e 144 345
e 144 356
e 144 357
e 144 368
e 144 381
e 144 385
e 144 399
e 144 405
e 144 428
e 144 429
e 144 441
e 144 447
e 144 448
e 144 453
e 144 464
e 144 470
e 144 473
e 144 477
e 144 478
e 144 497
e 144 498
e 144 504
e 144 507
e 144 508
e 144 537
e 144 538
e 144 548
e 144 569
e 144 570
e 144 583
e 144 601
e 144 609
e 144 612
e 144 649
e 144 658
e 144 675
e 144 705
e 144 719
e 144 725
e 144 730
e 144 731
e 144 742
e 144 760
e 144 765
e 144 773
e 144 804
e 144 805
e 144 812
e 144 817
e 144 820
e 144 830
e 144 832
e 144 835
e 144 856
e 144 859
e 144 861
e 144 864
e 144 874
e 144 894
e 144 897
e 144 904
e 144 922
e 144 925
e 144 938
e 144 940
e 144 943
e 144 953
e 144 977
e 144 979
e 144 982
e 144 995
e 145 251
e 145 262
e 145 273
e 145 304
e 145 316
e 145 323
e 145 366
e 145 369
e 145 372
e 145 379
e 145 404
e 145 433
e 145 437
e 145 445
e 145 477
e 145 480
e 145 487
e 145 493
e 145 494
e 145 496
e 145 515
e 145 516
e 145 541
e 145 544
e 145 545
e 145 547
e 145 561
e 145 576
e 145 579
e 145 593
e 145 600
e 145 605
e 145 616
e 145 628
e 145 629
e 145 652
e 145 677
e 145 684
e 145 687
e 145 692
e 145 695
e 145 700
e 145 702
e 145 710
e 145 711
e 145 722
e 145 726
e 145 729
e 145 736
e 145 764
e 145 782
e 145 789
e 145 793
e 145 799
e 145 804
e 145 823
e 145 836
e 145 858
e 145 859
e 145 866
e 145 870
e 145 871
e 145 877
e 145 908
e 145 917
e 145 928
e 145 932
e 145 936
e 145 942
e 145 946
e 145 950
e 145 952
e 145 969
e 145 973
e 145 989
e 146 251
e 146 254
e 146 264
e 146 275
e 146 276
e 146 277
e 146 282
e 146 287
e 146 292
e 146 300
e 146 313
e 146 319
e 146 331
e 146 342
e 146 348
e 146 350
e 146 379
e 146 387
e 146 422
e 146 433
e 146 435
e 146 437
e 146 438
e 146 444
e 146 445
e 146 451
e 146 461
e 146 472
e 146 477
e 146 482
e 146 541
e 146 564
e 146 569
e 146 571
e 146 577
e 146 581
e 146 588
e 146 598
e 146 605
e 146 616
e 146 623
e 146 630
e 146 667
e 146 673
e 146 681
e 146 685
e 146 689
e 146 690
e 146 716
e 146 735
e 146 773
e 146 775
e 146 786
e 146 788
e 146 802
e 146 806
e 146 807
e 146 817
e 146 839
e 146 844
e 146 858
e 146 908
e 146 911
e 146 941
e 146 944
e 146 945
e 146 975
e 146 980
e 146 985
e 146 998
e 146 999
e 147 259
e 147 263
e 147 282
e 147 295
e 147 324
e 147 353
e 147 362
e 147 375
e 147 386
e 147 393
e 147 401
e 147 402
e 147 412
e 147 417
e 147 425
e 147 426
e 147 444
e 147 452
e 147 458
e 147 460
e 147 463
e 147 474
e 147 475
e 147 483
e 147 485
e 147 505
e 147 507
e 147 526
e 147 543
e 147 552
e 147 558
e 147 572
e 147 580
e 147 613
e 147 614
e 147 622
e 147 623
e 147 626
e 147 627
e 147 638
e 147 645
e 147 660
e 147 662
e 147 677
e 147 681
e 147 684
e 147 690
e 147 704
e 147 715
e 147 725
e 147 741
e 147 745
e 147 747
e 147 771
e 147 795
e 147 814
e 147 823
e 147 828
e 147 830
e 147 835
e 147 839
e 147 840
e 147 847
e 147 854
e 147 855
e 147 865
e 147 883
e 147 886
e 147 888
e 147 889
e 147 894
e 147 913
e 147 932
e 147 950
e 147 954
e 147 956
e 147 960
e 147 962
e 147 963
e 147 967
e 147 981
e 147 983
e 147 992
e 147 993
e 148 252
e 148 257
e 148 259
e 148 263
e 148 274
e 148 324
e 148 328
e 148 335
e 148 338
e 148 345
e 148 346
e 148 359
e 148 368
e 148 369
e 148 389
e 148 402
e 148 418
e 148 429
e 148 434
e 148 435
e 148 444
e 148 445
e 148 465
e 148 491
e 148 502
e 148 503
e 148 504
e 148 511
e 148 517
e 148 522
e 148 528
e 148 535
e 148 539
e 148 546
e 148 548
e 148 557
e 148 591
e 148 598
e 148 604
e 148 611
e 148 612
e 148 630
e 148 648
e 148 655
e 148 656
e 148 665
e 148 677
e 148 699
e 148 702
e 148 710
e 148 717
e 148 727
e 148 773
e 148 777
e 148 801
e 148 812
e 148 821
e 148 846
e 148 854
e 148 859
e 148 863
e 148 869
e 148 871
e 148 886
e 148 890
e 148 892
e 148 901
e 148 911
e 148 914
e 148 919
e 148 920
e 148 935
e 148 944
e 148 945
e 148 951
e 148 952
e 148 954
e 148 961
e 148 963
e 148 976
e 148 980
e 148 983
e 148 991
e 149 290
e 149 294
e 149 295
e 149 313
e 149 340
e 149 341
e 149 367
e 149 384
e 149 415
e 149 429
e 149 435
e 149 439
e 149 441
e 149 444
e 149 463
e 149 483
e 149 494
e 149 496
e 149 499
e 149 501
e 149 506
e 149 515
e 149 523
e 149 529
e 149 536
e 149 539
e 149 541
e 149 554
e 149 555
e 149 577
e 149 596
e 149 600
e 149 604
e 149 613
e 149 627
e 149 647
e 149 674
e 149 675
e 149 677
e 149 696
e 149 702
e 149 709
e 149 780
e 149 786
e 149 793
e 149 809
e 149 815
e 149 830
e 149 831
e 149 837
e 149 839
e 149 845
e 149 848
e 149 853
e 149 864
e 149 897
e 149 932
e 149 950
e 149 954
e 149 978
e 149 999
e 150 254
e 150 257
e 150 263
e 150 279
e 150 293
e 150 314
e 150 341
e 150 368
e 150 369
e 150 374
e 150 387
e 150 388
e 150 407
e 150 417
e 150 419
e 150 464
e 150 475
e 150 487
e 150 506
e 150 507
e 150 510
e 150 529
e 150 532
e 150 548
e 150 570
e 150 572
e 150 606
e 150 609
e 150 614
e 150 622
e 150 623
e 150 628
e 150 644
e 150 654
e 150 656
e 150 660
e 150 680
e 150 695
e 150 698
e 150 701
e 150 702
e 150 730
e 150 742
e 150 745
e 150 759
e 150 767
e 150 779
e 150 785
e 150 796
e 150 797
e 150 802
e 150 807
e 150 808
e 150 814
e 150 817
e 150 819
e 150 821
e 150 825
e 150 826
e 150 828
e 150 847
e 150 861
e 150 868
e 150 882
e 150 914
e 150 921
e 150 923
e 150 940
e 150 950
e 150 957
e 150 963
e 150 979
e 150 981
e 151 289
e 151 297
e 151 312
e 151 322
e 151 327
e 151 328
e 151 332
e 151 337
e 151 341
e 151 346
e 151 350
e 151 365
e 151 367
e 151 372
e 151 382
e 151 405
e 151 412
e 151 420
e 151 424
e 151 428
e 151 433
e 151 435
e 151 454
e 151 460
e 151 473
e 151 484
e 151 486
e 151 503
e 151 505
e 151 514
e 151 515
e 151 527
e 151 552
e 151 584
e 151 639
e 151 640
e 151 641
e 151 646
e 151 652
e 151 668
e 151 683
e 151 689
e 151 691
e 151 711
e 151 734
e 151 736
e 151 747
e 151 763
e 151 773
e 151 774
e 151 777
e 151 778
e 151 783
e 151 798
e 151 800
e 151 802
e 151 803
e 151 809
e 151 837
e 151 838
e 151 840
e 151 848
e 151 849
e 151 857
e 151 862
e 151 863
e 151 882
e 151 890
e 151 903
e 151 911
e 151 914
e 151 919
e 151 920
e 151 922
e 151 923
e 151 940
e 151 956
e 151 969
e 151 976
e 151 983
e 151 994
e 151 1000
e 152 261
e 152 321
e 152 323
e 152 327
e 152 342
e 152 356
e 152 362
e 152 384
e 152 407
e 152 422
e 152 450
e 152 453
e 152 456
e 152 462
e 152 465
e 152 485
e 152 507
e 152 512
e 152 514
e 152 518
e 152 521
e 152 525
e 152 531
e 152 536
e 152 538
e 152 548
e 152 549
e 152 562
e 152 581
e 152 601
e 152 605
e 152 610
e 152 611
e 152 617
e 152 621
e 152 632
e 152 644
e 152 647
e 152 649
e 152 660
e 152 684
e 152 691
e 152 694
e 152 713
e 152 738
e 152 741
e 152 748
e 152 749
e 152 754
e 152 775
e 152 785
e 152 800
e 152 811
e 152 818
e 152 839
e 152 841
e 152 844
e 152 846
e 152 848
e 152 855
e 152 870
e 152 871
e 152 893
e 152 900
e 152 906
e 152 907
e 152 913
e 152 917
e 152 918
e 152 924
e 152 938
e 152 945
e 152 955
e 152 957
e 152 974
e 152 988
e 152 989
e 152 997
e 153 260
e 153 261
e 153 266
e 153 272
e 153 283
e 153 285
e 153 345
e 153 346
e 153 388
e 153 392
e 153 396
e 153 405
e 153 413
e 153 424
e 153 426
e 153 429
e 153 435
e 153 440
e 153 442
e 153 450
e 153 458
e 153 460
e 153 463
e 153 470
e 153 477
e 153 483
e 153 487
e 153 490
e 153 506
e 153 521
e 153 533
e 153 566
e 153 592
e 153 606
e 153 621
e 153 637
e 153 645
e 153 657
e 153 670
e 153 682
e 153 685
e 153 713
e 153 714
e 153 725
e 153 731
e 153 747
e 153 752
e 153 754
e 153 755
e 153 756
e 153 761
e 153 768
e 153 771
e 153 786
e 153 794
e 153 869
e 153 873
e 153 876
e 153 892
e 153 894
e 153 932
e 153 933
e 153 934
e 153 938
e 153 939
e 153 941
e 153 958
e 153 965
e 153 987
e 153 989
e 154 252
e 154 258
e 154 264
e 154 270
e 154 315
e 154 319
e 154 330
e 154 336
e 154 350
e 154 351
e 154 360
e 154 361
e 154 365
e 154 390
e 154 416
e 154 434
e 154 437
e 154 440
e 154 456
e 154 460
e 154 469
e 154 471
e 154 477
e 154 479
e 154 505
e 154 510
e 154 521
e 154 562
e 154 572
e 154 578
e 154 594
e 154 612
e 154 615
e 154 617
e 154 636
e 154 637
e 154 642
e 154 668
e 154 679
e 154 682
e 154 687
e 154 698
e 154 706
e 154 709
e 154 716
e 154 724
e 154 738
e 154 761
e 154 766
e 154 768
e 154 779
e 154 780
e 154 787
e 154 801
e 154 804
e 154 820
e 154 827
e 154 880
e 154 896
e 154 909
e 154 930
e 154 934
e 154 943
e 154 948
e 154 967
e 154 982
e 154 989
e 154 992
e 154 998
e 154 999
e 154 1000
e 155 259
e 155 262
e 155 266
e 155 276
e 155 296
e 155 304
e 155 309
e 155 318
e 155 322
e 155 326
e 155 329
e 155 360
e 155 393
e 155 398
e 155 402
e 155 410
e 155 420
e 155 427
e 155 428
e 155 431
e 155 438
e 155 440
e 155 442
e 155 477
e 155 480
e 155 495
e 155 520
e 155 524
e 155 535
e 155 564
e 155 567
e 155 588
e 155 596
e 155 604
e 155 627
e 155 644
e 155 653
e 155 662
e 155 670
e 155 710
e 155 732
e 155 735
e 155 744
e 155 751
e 155 755
e 155 766
e 155 770
e 155 781
e 155 785
e 155 791
e 155 798
e 155 806
e 155 809
e 155 829
e 155 832
e 155 836
e 155 860
e 155 869
e 155 888
e 155 891
e 155 897
e 155 908
e 155 914
e 155 915
e 155 917
e 155 956
e 155 966
e 155 980
e 155 983
e 155 985
e 155 987
e 155 999
e 156 251
e 156 252
e 156 253
e 156 258
e 156 263
e 156 277
e 156 281
e 156 282
e 156 287
e 156 288
e 156 289
e 156 291
e 156 301
e 156 319
e 156 327
e 156 347
e 156 357
e 156 367
e 156 375
e 156 379
e 156 398
e 156 400
e 156 409
e 156 424
e 156 440
e 156 446
e 156 463
e 156 468
e 156 469
e 156 471
e 156 479
e 156 502
e 156 515
e 156 530
e 156 533
e 156 539
e 156 540
e 156 544
e 156 593
e 156 596
e 156 600
e 156 601
e 156 609
e 156 614
e 156 638
e 156 667
e 156 675
e 156 684
e 156 707
e 156 729
e 156 739
e 156 748
e 156 751
e 156 763
e 156 771
e 156 791
e 156 803
e 156 809
e 156 814
e 156 817
e 156 832
e 156 833
e 156 840
e 156 857
e 156 868
e 156 900
e 156 912
e 156 913
e 156 934
e 156 948
e 156 954
e 156 989
e 156 995
e 156 999
e 157 260
e 157 263
e 157 285
e 157 301
e 157 303
e 157 307
e 157 323
e 157 326
e 157 327
e 157 330
e 157 366
e 157 367
e 157 380
e 157 400
e 157 405
e 157 409
e 157 421
e 157 459
e 157 464
e 157 480
e 157 496
e 157 505
e 157 544
e 157 551
e 157 555
e 157 569
e 157 573
e 157 575
e 157 587
e 157 588
e 157 622
e 157 629
e 157 644
e 157 649
e 157 660
e 157 665
e 157 696
e 157 697
e 157 702
e 157 704
e 157 706
e 157 709
e 157 727
e 157 729
e 157 740
e 157 744
e 157 746
e 157 749
e 157 752
e 157 756
e 157 772
e 157 775
e 157 781
e 157 805
e 157 814
e 157 815
e 157 827
e 157 828
e 157 830
e 157 833
e 157 836
e 157 837
e 157 846
e 157 849
e 157 852
e 157 858
e 157 868
e 157 869
e 157 878
e 157 887
e 157 932
e 157 951
e 157 955
e 157 961
e 157 991
e 157 992
e 157 994
e 157 1000
e 158 252
e 158 256
e 158 261
e 158 262
e 158 266
e 158 272
e 158 279
e 158 280
e 158 288
e 158 290
e 158 295
e 158 304
e 158 312
e 158 333
e 158 336
e 158 349
e 158 352
e 158 357
e 158 359
e 158 364
e 158 388
e 158 390
e 158 391
e 158 422
e 158 435
e 158 454
e 158 464
e 158 469
e 158 471
e 158 474
e 158 477
e 158 483
e 158 494
e 158 499
e 158 509
e 158 513
e 158 541
e 158 549
e 158 554
e 158 556
e 158 559
e 158 563
e 158 590
e 158 602
e 158 604
e 158 606
e 158 615
e 158 638
e 158 645
e 158 646
e 158 653
e 158 659
e 158 660
e 158 670
e 158 680
e 158 688
e 158 690
e 158 697
e 158 701
e 158 705
e 158 709
e 158 713
e 158 718
e 158 720
e 158 724
e 158 738
e 158 760
e 158 762
e 158 765
e 158 774
e 158 792
e 158 818
e 158 839
e 158 849
e 158 856
e 158 865
e 158 870
e 158 883
e 158 898
e 158 910
e 158 912
e 158 920
e 158 932
e 158 935
e 158 942
e 158 949
e 158 952
e 158 963
e 158 995
e 158 996
e 159 258
e 159 279
e 159 292
e 159 295
e 159 300
e 159 302
e 159 303
e 159 304
e 159 305
e 159 308
e 159 316
e 159 328
e 159 349
e 159 350
e 159 360
e 159 362
e 159 364
e 159 372
e 159 395
e 159 400
e 159 413
e 159 421
e 159 435
e 159 459
e 159 463
e 159 508
e 159 531
e 159 532
e 159 537
e 159 541
e 159 546
e 159 590
e 159 591
e 159 597
e 159 617
e 159 621
e 159 631
e 159 646
e 159 666
e 159 687
e 159 696
e 159 699
e 159 703
e 159 710
e 159 716
e 159 750
e 159 754
e 159 761
e 159 793
e 159 811
e 159 816
e 159 817
e 159 829
e 159 835
e 159 840
e 159 844
e 159 848
e 159 853
e 159 859
e 159 862
e 159 863
e 159 868
e 159 869
e 159 873
e 159 883
e 159 893
e 159 904
e 159 905
e 159 923
e 159 930
e 159 936
e 159 940
e 159 950
e 159 968
e 159 970
e 159 983
e 159 993
e 159 996
e 160 258
e 160 261
e 160 264
e 160 282
e 160 289
e 160 295
e 160 306
e 160 314
e 160 316
e 160 328
e 160 333
e 160 356
e 160 361
e 160 369
e 160 383
e 160 398
e 160 406
e 160 421
e 160 425
e 160 445
e 160 454
e 160 481
e 160 499
e 160 500
e 160 509
e 160 512
e 160 516
e 160 521
e 160 524
e 160 529
e 160 535
e 160 536
e 160 546
e 160 553
e 160 556
e 160 602
e 160 611
e 160 622
e 160 643
e 160 644
e 160 652
e 160 675
e 160 693
e 160 707
e 160 719
e 160 731
e 160 745
e 160 750
e 160 775
e 160 782
e 160 787
e 160 788
e 160 803
e 160 806
e 160 808
e 160 809
e 160 815
e 160 817
e 160 835
e 160 840
e 160 846
e 160 853
e 160 871
e 160 872
e 160 875
e 160 876
e 160 899
e 160 910
e 160 911
e 160 928
e 160 935
e 160 941
e 160 952
e 160 978
e 161 255
e 161 258
e 161 261
e 161 263
e 161 282
e 161 285
e 161 295
e 161 353
e 161 359
e 161 365
e 161 374
e 161 375
e 161 376
e 161 378
e 161 393
e 161 412
e 161 414
e 161 421
e 161 426
e 161 427
e 161 453
e 161 456
e 161 461
e 161 474
e 161 517
e 161 529
e 161 535
e 161 542
e 161 543
e 161 552
e 161 565
e 161 567
e 161 569
e 161 573
e 161 574
e 161 589
e 161 595
e 161 602
e 161 604
e 161 607
e 161 609
e 161 613
e 161 621
e 161 629
e 161 630
e 161 633
e 161 636
e 161 644
e 161 649
e 161 657
e 161 660
e 161 672
e 161 673
e 161 674
e 161 682
e 161 704
e 161 724
e 161 733
e 161 744
e 161 753
e 161 762
e 161 780
e 161 799
e 161 804
e 161 806
e 161 815
e 161 823
e 161 825
e 161 855
e 161 856
e 161 886
e 161 899
e 161 908
e 161 936
e 161 938
e 161 944
e 161 953
e 161 966
e 161 995
e 162 255
e 162 257
e 162 263
e 162 273
e 162 280
e 162 281
e 162 286
e 162 307
e 162 322
e 162 331
e 162 340
e 162 343
e 162 348
e 162 369
e 162 370
e 162 387
e 162 401
e 162 403
e 162 412
e 162 422
e 162 424
e 162 429
e 162 442
e 162 459
e 162 470
e 162 479
e 162 507
e 162 511
e 162 516
e 162 521
e 162 530
e 162 539
e 162 544
e 162 546
e 162 548
e 162 559
e 162 561
e 162 563
e 162 585
e 162 586
e 162 601
e 162 610
e 162 612
e 162 633
e 162 636
e 162 637
e 162 646
e 162 656
e 162 676
e 162 679
e 162 688
e 162 705
e 162 715
e 162 729
e 162 730
e 162 739
e 162 755
e 162 766
e 162 772
e 162 784
e 162 795
e 162 797
e 162 825
e 162 843
e 162 871
e 162 876
e 162 912
e 162 914
e 162 922
e 162 948
e 162 955
e 162 957
e 162 962
e 162 980
e 163 254
e 163 284
e 163 301
e 163 333
e 163 334
e 163 340
e 163 346
e 163 358
e 163 367
e 163 386
e 163 405
e 163 406
e 163 408
e 163 437
e 163 442
e 163 461
e 163 466
e 163 485
e 163 491
e 163 497
e 163 528
e 163 546
e 163 553
e 163 558
e 163 568
e 163 584
e 163 593
e 163 600
e 163 645
e 163 661
e 163 662
e 163 689
e 163 692
e 163 697
e 163 703
e 163 706
e 163 720
e 163 731
e 163 744
e 163 746
e 163 748
e 163 749
e 163 762
e 163 763
e 163 773
e 163 784
e 163 786
e 163 792
e 163 804
e 163 814
e 163 855
e 163 865
e 163 868
e 163 886
e 163 900
e 163 927
e 163 935
e 163 940
e 163 943
e 163 952
e 163 963
e 163 971
e 163 973
e 163 980
e 163 981
e 163 991
e 163 992
e 163 995
e 164 258
e 164 266
e 164 299
e 164 315
e 164 318
e 164 326
e 164 331
e 164 384
e 164 391
e 164 398
e 164 428
e 164 430
e 164 431
e 164 434
e 164 438
e 164 445
e 164 479
e 164 493
e 164 506
e 164 512
e 164 533
e 164 548
e 164 566
e 164 578
e 164 587
e 164 594
e 164 603
e 164 609
e 164 620
e 164 624
e 164 645
e 164 648
e 164 651
e 164 658
e 164 676
e 164 679
e 164 721
e 164 723
e 164 724
e 164 735
e 164 747
e 164 749
e 164 754
e 164 776
e 164 782
e 164 793
e 164 794
e 164 800
e 164 821
e 164 831
e 164 848
e 164 868
e 164 881
e 164 888
e 164 889
e 164 898
e 164 902
e 164 920
e 164 928
e 164 932
e 164 935
e 164 945
e 164 950
e 164 952
e 164 959
e 164 969
e 164 976
e 164 979
e 164 981
e 165 269
e 165 275
e 165 278
e 165 286
e 165 311
e 165 313
e 165 321
e 165 327
e 165 330
e 165 333
e 165 346
e 165 355
e 165 373
e 165 395
e 165 425
e 165 448
e 165 449
e 165 483
e 165 500
e 165 522
e 165 523
e 165 525
e 165 526
e 165 540
e 165 566
e 165 567
e 165 572
e 165 607
e 165 622
e 165 641
e 165 676
e 165 687
e 165 698
e 165 704
e 165 722
e 165 723
e 165 724
e 165 732
e 165 733
e 165 735
e 165 738
e 165 743
e 165 771
e 165 787
e 165 797
e 165 815
e 165 825
e 165 855
e 165 862
e 165 868
e 165 884
e 165 891
e 165 897
e 165 902
e 165 914
e 165 932
e 165 958
e 165 959
e 165 989
e 165 995
e 166 258
e 166 259
e 166 281
e 166 290
e 166 292
e 166 303
e 166 314
e 166 332
e 166 334
e 166 341
e 166 356
e 166 374
e 166 382
e 166 387
e 166 389
e 166 420
e 166 422
e 166 428
e 166 432
e 166 433
e 166 462
e 166 464
e 166 466
e 166 486
e 166 496
e 166 514
e 166 521
e 166 542
e 166 554
e 166 561
e 166 566
e 166 567
e 166 590
e 166 591
e 166 601
e 166 609
e 166 615
e 166 628
e 166 634
e 166 635
e 166 690
e 166 692
e 166 703
e 166 720
e 166 725
e 166 727
e 166 732
e 166 744
e 166 759
e 166 780
e 166 790
e 166 797
e 166 807
e 166 816
e 166 817
e 166 842
e 166 844
e 166 845
e 166 851
e 166 861
e 166 871
e 166 874
e 166 875
e 166 926
e 166 949
e 166 960
e 166 968
e 166 983
e 166 984
e 167 251
e 167 256
e 167 274
e 167 278
e 167 303
e 167 309
e 167 318
e 167 335
e 167 340
e 167 350
e 167 374
e 167 375
e 167 418
e 167 428
e 167 431
e 167 435
e 167 446
e 167 447
e 167 456
e 167 470
e 167 472
e 167 500
e 167 505
e 167 531
e 167 540
e 167 541
e 167 542
e 167 578
e 167 581
e 167 614
e 167 615
e 167 618
e 167 630
e 167 634
e 167 638
e 167 640
e 167 658
e 167 659
e 167 672
e 167 674
e 167 691
e 167 694
e 167 697
e 167 716
e 167 719
e 167 745
e 167 746
e 167 769
e 167 807
e 167 818
e 167 847
e 167 850
e 167 854
e 167 855
e 167 880
e 167 884
e 167 888
e 167 909
e 167 947
e 167 956
e 167 972
e 167 974
e 167 980
e 167 982
e 167 985
e 167 993
e 167 999
e 168 252
e 168 254
e 168 255
e 168 265
e 168 270
e 168 277
e 168 285
e 168 287
e 168 313
e 168 315
e 168 324
e 168 329
e 168 330
e 168 332
e 168 346
e 168 347
e 168 380
e 168 398
e 168 408
e 168 424
e 168 433
e 168 436
e 168 441
e 168 463
e 168 473
e 168 492
e 168 502
e 168 535
e 168 549
e 168 576
e 168 606
e 168 609
e 168 610
e 168 614
e 168 621
e 168 633
e 168 646
e 168 667
e 168 675
e 168 681
e 168 684
e 168 688
e 168 691
e 168 709
e 168 724
e 168 739
e 168 742
e 168 756
e 168 759
e 168 816
e 168 822
e 168 823
e 168 831
e 168 853
e 168 875
e 168 877
e 168 885
e 168 888
e 168 894
e 168 899
e 168 904
e 168 912
e 168 913
e 168 932
e 168 941
e 168 958
e 168 959
e 168 960
e 168 981
e 168 985
e 168 986
e 168 998
e 169 262
e 169 264
e 169 279
e 169 288
e 169 289
e 169 317
e 169 318
e 169 326
e 169 338
e 169 340
e 169 343
e 169 349
e 169 352
e 169 356
e 169 359
e 169 366
e 169 378
e 169 384
e 169 394
e 169 420
e 169 454
e 169 458
e 169 483
e 169 486
e 169 508
e 169 510
e 169 532
e 169 534
e 169 543
e 169 547
e 169 568
e 169 587
e 169 588
e 169 603
e 169 604
e 169 605
e 169 609
e 169 611
e 169 612
e 169 615
e 169 627
e 169 634
e 169 636
e 169 648
e 169 649
e 169 650
e 169 654
e 169 667
e 169 670
e 169 671
e 169 673
e 169 697
e 169 733
e 169 737
e 169 743
e 169 744
e 169 746
e 169 752
e 169 758
e 169 769
e 169 804
e 169 812
e 169 816
e 169 827
e 169 835
e 169 853
e 169 862
e 169 864
e 169 868
e 169 873
e 169 881
e 169 891
e 169 900
e 169 915
e 169 934
e 169 936
e 169 939
e 169 954
e 169 962
e 169 973
e 170 260
e 170 261
e 170 264
e 170 273
e 170 288
e 170 289
e 170 293
e 170 299
e 170 307
e 170 312
e 170 316
e 170 340
e 170 346
e 170 359
e 170 368
e 170 369
e 170 378
e 170 387
e 170 399
e 170 404
e 170 416
e 170 421
e 170 433
e 170 434
e 170 451
e 170 455
e 170 470
e 170 484
e 170 486
e 170 491
e 170 502
e 170 504
e 170 521
e 170 545
e 170 546
e 170 557
e 170 562
e 170 575
e 170 585
e 170 596
e 170 599
e 170 610
e 170 620
e 170 621
e 170 656
e 170 660
e 170 691
e 170 699
e 170 701
e 170 706
e 170 714
e 170 721
e 170 722
e 170 725
e 170 727
e 170 729
e 170 731
e 170 736
e 170 751
e 170 764
e 170 770
e 170 794
e 170 798
e 170 818
e 170 820
e 170 823
e 170 843
e 170 844
e 170 855
e 170 856
e 170 868
e 170 871
e 170 873
e 170 893
e 170 894
e 170 903
e 170 941
e 170 951
e 170 957
e 170 959
e 170 972
e 170 976
e 170 985
e 170 987
e 170 989
e 170 1000
e 171 296
e 171 307
e 171 308
e 171 353
e 171 367
e 171 368
e 171 377
e 171 394
e 171 407
e 171 420
e 171 424
e 171 427
e 171 447
e 171 482
e 171 490
e 171 497
e 171 520
e 171 529
e 171 531
e 171 545
e 171 559
e 171 560
e 171 562
e 171 577
e 171 588
e 171 589
e 171 612
e 171 614
e 171 632
e 171 645
e 171 646
e 171 669
e 171 702
e 171 715
e 171 718
e 171 728
e 171 734
e 171 754
e 171 761
e 171 767
e 171 785
e 171 786
e 171 794
e 171 797
e 171 804
e 171 818
e 171 824
e 171 847
e 171 869
e 171 889
e 171 914
e 171 915
e 171 916
e 171 936
e 171 950
e 171 960
e 171 961
e 171 970
e 171 975
e 171 986
e 172 256
e 172 262
e 172 271
e 172 275
e 172 285
e 172 287
e 172 289
e 172 290
e 172 292
e 172 307
e 172 310
e 172 320
e 172 380
e 172 381
e 172 387
e 172 395
e 172 404
e 172 405
e 172 425
e 172 427
e 172 440
e 172 458
e 172 462
e 172 484
e 172 495
e 172 523
e 172 529
e 172 533
e 172 534
e 172 537
e 172 574
e 172 588
e 172 597
e 172 600
e 172 602
e 172 605
e 172 614
e 172 616
e 172 623
e 172 628
e 172 631
e 172 636
e 172 649
e 172 652
e 172 657
e 172 658
e 172 659
e 172 670
e 172 676
e 172 678
e 172 685
e 172 692
e 172 693
e 172 696
e 172 717
e 172 718
e 172 744
e 172 745
e 172 754
e 172 756
e 172 765
e 172 768
e 172 770
e 172 775
e 172 786
e 172 804
e 172 806
e 172 822
e 172 824
e 172 831
e 172 860
e 172 866
e 172 881
e 172 890
e 172 898
e 172 907
e 172 961
e 172 970
e 172 979
e 172 982
e 172 989
e 172 995
e 173 252
e 173 260
e 173 278
e 173 291
e 173 310
e 173 326
e 173 337
e 173 349
e 173 351
e 173 352
e 173 367
e 173 373
e 173 380
e 173 382
e 173 399
e 173 404
e 173 417
e 173 423
e 173 459
e 173 467
e 173 475
e 173 485
e 173 487
e 173 489
e 173 504
e 173 518
e 173 527
e 173 537
e 173 560
e 173 576
e 173 577
e 173 591
e 173 625
e 173 631
e 173 669
e 173 678
e 173 692
e 173 713
e 173 715
e 173 727
e 173 730
e 173 746
e 173 748
e 173 749
e 173 753
e 173 754
e 173 763
e 173 764
e 173 779
e 173 798
e 173 803
e 173 812
e 173 818
e 173 885
e 173 887
e 173 910
e 173 920
e 173 931
e 173 936
e 173 938
e 173 940
e 173 941
e 173 942
e 173 955
e 173 958
e 173 962
e 173 969
e 173 985
e 173 987
e 173 998
e 174 276
e 174 277
e 174 281
e 174 298
e 174 304
e 174 309
e 174 314
e 174 322
e 174 342
e 174 345
e 174 352
e 174 383
e 174 384
e 174 399
e 174 401
e 174 403
e 174 411
e 174 415
e 174 423
e 174 432
e 174 450
e 174 476
e 174 479
e 174 503
e 174 507
e 174 511
e 174 527
e 174 529
e 174 545
e 174 556
e 174 580
e 174 582
e 174 591
e 174 636
e 174 649
e 174 652
e 174 658
e 174 661
e 174 668
e 174 690
e 174 712
e 174 742
e 174 745
e 174 746
e 174 763
e 174 778
e 174 780
e 174 787
e 174 795
e 174 805
e 174 810
e 174 832
e 174 843
e 174 857
e 174 870
e 174 873
e 174 891
e 174 896
e 174 909
e 174 915
e 174 917
e 174 938
e 174 942
e 174 954
e 174 956
e 174 966
e 174 991
e 174 995
e 175 281
e 175 297
e 175 299
e 175 300
e 175 305
e 175 309
e 175 319
e 175 323
e 175 346
e 175 354
e 175 362
e 175 364
e 175 377
e 175 379
e 175 395
e 175 402
e 175 406
e 175 432
e 175 439
e 175 440
e 175 454
e 175 464
e 175 468
e 175 481
e 175 482
e 175 483
e 175 493
e 175 512
e 175 520
e 175 543
e 175 546
e 175 557
e 175 573
e 175 581
e 175 597
e 175 600
e 175 605
e 175 607
e 175 608
e 175 609
e 175 610
e 175 626
e 175 632
e 175 640
e 175 659
e 175 676
e 175 699
e 175 705
e 175 706
e 175 724
e 175 766
e 175 777
e 175 788
e 175 798
e 175 816
e 175 818
e 175 825
e 175 839
e 175 856
e 175 872
e 175 877
e 175 881
e 175 882
e 175 883
e 175 884
e 175 892
e 175 939
e 175 940
e 175 946
e 175 960
e 175 988
e 175 995
e 176 258
e 176 261
e 176 266
e 176 268
e 176 277
e 176 282
e 176 297
e 176 304
e 176 308
e 176 325
e 176 333
e 176 335
e 176 343
e 176 359
e 176 381
e 176 390
e 176 392
e 176 419
e 176 420
e 176 428
e 176 463
e 176 471
e 176 472
e 176 484
e 176 497
e 176 512
e 176 514
e 176 518
e 176 548
e 176 550
e 176 565
e 176 575
e 176 580
e 176 582
e 176 616
e 176 622
e 176 632
e 176 654
e 176 665
e 176 666
e 176 671
e 176 673
e 176 684
e 176 691
e 176 696
e 176 706
e 176 712
e 176 713
e 176 715
e 176 721
e 176 757
e 176 761
e 176 768
e 176 790
e 176 814
e 176 821
e 176 824
e 176 837
e 176 840
e 176 847
e 176 851
e 176 856
e 176 859
e 176 860
e 176 862
e 176 863
e 176 872
e 176 875
e 176 876
e 176 890
e 176 900
e 176 906
e 176 914
e 176 930
e 176 942
e 176 965
e 176 966
e 176 976
e 176 984
e 176 999
e 177 263
e 177 265
e 177 299
e 177 333
e 177 335
e 177 336
e 177 343
e 177 346
e 177 356
e 177 375
e 177 384
e 177 413
e 177 432
e 177 444
e 177 448
e 177 449
e 177 454
e 177 455
e 177 462
e 177 475
e 177 477
e 177 485
e 177 494
e 177 502
e 177 510
e 177 529
e 177 542
e 177 550
e 177 555
e 177 563
e 177 583
e 177 586
e 177 609
e 177 615
e 177 617
e 177 621
e 177 646
e 177 673
e 177 677
e 177 684
e 177 709
e 177 721
e 177 744
e 177 745
e 177 815
e 177 840
e 177 860
e 177 865
e 177 873
e 177 874
e 177 924
e 177 944
e 177 948
e 177 952
e 177 964
e 177 971
e 177 972
e 177 977
e 177 979
e 178 261
e 178 270
e 178 288
e 178 289
e 178 312
e 178 320
e 178 334
e 178 337
e 178 355
e 178 359
e 178 362
e 178 375
e 178 382
e 178 383
e 178 404
e 178 416
e 178 419
e 178 427
e 178 435
e 178 446
e 178 466
e 178 467
e 178 504
e 178 507
e 178 514
e 178 516
e 178 539
e 178 544
e 178 548
e 178 550
e 178 577
e 178 584
e 178 598
e 178 621
e 178 622
e 178 637
e 178 652
e 178 663
e 178 680
e 178 699
e 178 700
e 178 717
e 178 719
e 178 743
e 178 749
e 178 756
e 178 758
e 178 759
e 178 766
e 178 770
e 178 777
e 178 790
e 178 803
e 178 804
e 178 821
e 178 825
e 178 842
e 178 869
e 178 877
e 178 898
e 178 913
e 178 917
e 178 919
e 178 929
e 178 931
e 178 958
e 178 962
e 178 994
e 178 998
e 178 999
e 179 252
e 179 258
e 179 260
e 179 262
e 179 280
e 179 307
e 179 336
e 179 339
e 179 347
e 179 356
e 179 358
e 179 364
e 179 376
e 179 396
e 179 419
e 179 437
e 179 448
e 179 451
e 179 465
e 179 466
e 179 484
e 179 486
e 179 487
e 179 492
e 179 514
e 179 523
e 179 541
e 179 545
e 179 571
e 179 575
e 179 585
e 179 596
e 179 598
e 179 601
e 179 631
e 179 648
e 179 649
e 179 651
e 179 659
e 179 672
e 179 674
e 179 675
e 179 689
e 179 697
e 179 714
e 179 731
e 179 739
e 179 763
e 179 785
e 179 789
e 179 799
e 179 806
e 179 817
e 179 823
e 179 853
e 179 856
e 179 863
e 179 886
e 179 897
e 179 904
e 179 905
e 179 909
e 179 910
e 179 923
e 179 925
e 179 928
e 179 929
e 179 932
e 179 933
e 179 943
e 179 949
e 179 964
e 179 982
e 179 1000
e 180 282
e 180 288
e 180 290
e 180 300
e 180 304
e 180 307
e 180 309
e 180 310
e 180 311
e 180 322
e 180 342
e 180 349
e 180 366
e 180 377
e 180 382
e 180 388
e 180 394
e 180 400
e 180 418
e 180 425
e 180 445
e 180 483
e 180 486
e 180 505
e 180 506
e 180 526
e 180 541
e 180 553
e 180 570
e 180 587
e 180 616
e 180 620
e 180 625
e 180 627
e 180 628
e 180 633
e 180 648
e 180 657
e 180 673
e 180 678
e 180 681
e 180 687
e 180 697
e 180 701
e 180 703
e 180 705
e 180 712
e 180 717
e 180 762
e 180 774
e 180 781
e 180 785
e 180 787
e 180 808
e 180 828
e 180 834
e 180 835
e 180 847
e 180 862
e 180 895
e 180 911
e 180 914
e 180 922
e 180 927
e 180 939
e 180 947
e 180 950
e 180 954
e 180 960
e 180 964
e 180 965
e 180 971
e 180 980
e 180 991
e 180 1000
e 181 268
e 181 285
e 181 314
e 181 333
e 181 334
e 181 335
e 181 339
e 181 356
e 181 357
e 181 361
e 181 378
e 181 387
e 181 393
e 181 403
e 181 425
e 181 436
e 181 440
e 181 448
e 181 455
e 181 460
e 181 480
e 181 482
e 181 486
e 181 490
e 181 500
e 181 508
e 181 521
e 181 530
e 181 544
e 181 568
e 181 579
e 181 583
e 181 594
e 181 602
e 181 603
e 181 605
e 181 620
e 181 630
e 181 633
e 181 648
e 181 681
e 181 692
e 181 706
e 181 707
e 181 712
e 181 732
e 181 746
e 181 762
e 181 765
e 181 772
e 181 783
e 181 797
e 181 800
e 181 820
e 181 829
e 181 830
e 181 836
e 181 842
e 181 875
e 181 878
e 181 919
e 181 922
e 181 926
e 181 948
e 181 953
e 181 969
e 181 970
e 181 995
e 182 257
e 182 275
e 182 282
e 182 288
e 182 298
e 182 300
e 182 309
e 182 316
e 182 329
e 182 337
e 182 362
e 182 366
e 182 400
e 182 404
e 182 406
e 182 415
e 182 419
e 182 422
e 182 427
e 182 429
e 182 441
e 182 456
e 182 457
e 182 466
e 182 475
e 182 476
e 182 482
e 182 505
e 182 506
e 182 508
e 182 509
e 182 512
e 182 516
e 182 544
e 182 549
e 182 565
e 182 601
e 182 617
e 182 641
e 182 644
e 182 660
e 182 664
e 182 665
e 182 668
e 182 682
e 182 684
e 182 712
e 182 731
e 182 733
e 182 748
e 182 762
e 182 771
e 182 779
e 182 780
e 182 795
e 182 797
e 182 805
e 182 808
e 182 816
e 182 821
e 182 830
e 182 854
e 182 909
e 182 914
e 182 917
e 182 919
e 182 931
e 182 951
e 182 962
e 182 982
e 183 253
e 183 259
e 183 284
e 183 285
e 183 292
e 183 293
e 183 296
e 183 302
e 183 309
e 183 323
e 183 337
e 183 345
e 183 347
e 183 354
e 183 359
e 183 362
e 183 365
e 183 367
e 183 368
e 183 378
e 183 379
e 183 382
e 183 400
e 183 421
e 183 435
e 183 436
e 183 440
e 183 445
e 183 455
e 183 462
e 183 472
e 183 477
e 183 493
e 183 500
e 183 506
e 183 510
e 183 512
e 183 516
e 183 520
e 183 525
e 183 536
e 183 540
e 183 543
e 183 544
e 183 574
e 183 578
e 183 579
e 183 585
e 183 588
e 183 594
e 183 598
e 183 603
e 183 608
e 183 610
e 183 620
e 183 629
e 183 633
e 183 642
e 183 643
e 183 650
e 183 651
e 183 673
e 183 711
e 183 719
e 183 721
e 183 722
e 183 724
e 183 726
e 183 732
e 183 746
e 183 775
e 183 785
e 183 815
e 183 817
e 183 838
e 183 844
e 183 850
e 183 871
e 183 877
e 183 882
e 183 891
e 183 895
e 183 914
e 183 921
e 183 922
e 183 924
e 183 939
e 183 940
e 183 949
e 183 953
e 183 956
e 183 965
e 183 966
e 183 968
e 183 971
e 183 995
e 184 251
e 184 260
e 184 263
e 184 267
e 184 269
e 184 274
e 184 276
e 184 287
e 184 316
e 184 319
e 184 332
e 184 338
e 184 340
e 184 342
e 184 343
e 184 358
e 184 371
e 184 373
e 184 380
e 184 388
e 184 395
e 184 397
e 184 400
e 184 402
e 184 411
e 184 412
e 184 441
e 184 443
e 184 445
e 184 491
e 184 521
e 184 529
e 184 536
e 184 545
e 184 555
e 184 556
e 184 559
e 184 564
e 184 566
e 184 576
e 184 580
e 184 604
e 184 612
e 184 627
e 184 638
e 184 642
e 184 659
e 184 674
e 184 682
e 184 692
e 184 719
e 184 720
e 184 722
e 184 726
e 184 729
e 184 733
e 184 741
e 184 753
e 184 779
e 184 803
e 184 809
e 184 811
e 184 839
e 184 845
e 184 857
e 184 868
e 184 888
e 184 892
e 184 896
e 184 899
e 184 909
e 184 926
e 184 946
e 184 970
e 184 979
e 184 985
e 184 995
e 185 255
e 185 262
e 185 275
e 185 285
e 185 313
e 185 315
e 185 319
e 185 327
e 185 333
e 185 341
e 185 359
e 185 374
e 185 375
e 185 397
e 185 412
e 185 447
e 185 452
e 185 459
e 185 466
e 185 468
e 185 469
e 185 470
e 185 476
e 185 478
e 185 491
e 185 526
e 185 529
e 185 536
e 185 561
e 185 566
e 185 570
e 185 578
e 185 580
e 185 583
e 185 589
e 185 609
e 185 623
e 185 641
e 185 642
e 185 662
e 185 674
e 185 685
e 185 697
e 185 701
e 185 710
e 185 715
e 185 724
e 185 738
e 185 759
e 185 767
e 185 771
e 185 777
e 185 798
e 185 802
e 185 806
e 185 816
e 185 843
e 185 845
e 185 855
e 185 856
e 185 866
e 185 871
e 185 881
e 185 891
e 185 898
e 185 902
e 185 913
e 185 925
e 185 935
e 185 948
e 185 954
e 185 955
e 185 956
e 185 957
e 185 983
e 185 994
e 186 256
e 186 257
e 186 264
e 186 265
e 186 275
e 186 276
e 186 281
e 186 285
e 186 286
e 186 300
e 186 335
e 186 355
e 186 359
e 186 361
e 186 365
e 186 377
e 186 405
e 186 424
e 186 433
e 186 434
e 186 441
e 186 453
e 186 470
e 186 489
e 186 514
e 186 530
e 186 541
e 186 548
e 186 568
e 186 576
e 186 582
e 186 587
e 186 592
e 186 599
e 186 605
e 186 616
e 186 624
e 186 634
e 186 650
e 186 652
e 186 653
e 186 654
e 186 655
e 186 663
e 186 677
e 186 684
e 186 686
e 186 703
e 186 712
e 186 734
e 186 744
e 186 755
e 186 761
e 186 767
e 186 792
e 186 797
e 186 801
e 186 819
e 186 824
e 186 833
e 186 846
e 186 850
e 186 870
e 186 900
e 186 930
e 186 952
e 186 955
e 186 966
e 186 977
e 186 980
e 186 987
e 187 290
e 187 292
e 187 296
e 187 300
e 187 304
e 187 311
e 187 315
e 187 321
e 187 342
e 187 343
e 187 383
e 187 384
e 187 391
e 187 392
e 187 399
e 187 404
e 187 416
e 187 423
e 187 441
e 187 450
e 187 455
e 187 478
e 187 481
e 187 482
e 187 485
e 187 491
e 187 496
e 187 504
e 187 521
e 187 523
e 187 525
e 187 527
e 187 530
e 187 532
e 187 537
e 187 554
e 187 564
e 187 569
e 187 590
e 187 595
e 187 607
e 187 616
e 187 617
e 187 636
e 187 640
e 187 644
e 187 669
e 187 702
e 187 712
e 187 743
e 187 749
e 187 753
e 187 757
e 187 761
e 187 765
e 187 778
e 187 785
e 187 796
e 187 802
e 187 833
e 187 854
e 187 871
e 187 877
e 187 919
e 187 920
e 187 923
e 187 934
e 187 956
e 187 967
e 187 971
e 187 975
e 187 983
e 187 988
e 187 994
e 187 996
e 188 266
e 188 267
e 188 274
e 188 280
e 188 306
e 188 311
e 188 341
e 188 359
e 188 385
e 188 386
e 188 404
e 188 405
e 188 415
e 188 417
e 188 427
e 188 459
e 188 467
e 188 514
e 188 521
e 188 531
e 188 533
e 188 535
e 188 537
e 188 547
e 188 575
e 188 584
e 188 615
e 188 628
e 188 638
e 188 642
e 188 652
e 188 659
e 188 672
e 188 685
e 188 687
e 188 697
e 188 706
e 188 707
e 188 719
e 188 724
e 188 744
e 188 747
e 188 761
e 188 765
e 188 767
e 188 770
e 188 776
e 188 797
e 188 858
e 188 878
e 188 902
e 188 910
e 188 917
e 188 950
e 188 951
e 188 955
e 188 983
e 188 992
e 189 251
e 189 267
e 189 278
e 189 286
e 189 291
e 189 293
e 189 309
e 189 385
e 189 391
e 189 392
e 189 394
e 189 396
e 189 406
e 189 408
e 189 410
e 189 422
e 189 427
e 189 439
e 189 444
e 189 447
e 189 475
e 189 486
e 189 496
e 189 507
e 189 516
e 189 522
e 189 541
e 189 551
e 189 553
e 189 555
e 189 564
e 189 568
e 189 575
e 189 576
e 189 633
e 189 642
e 189 662
e 189 670
e 189 701
e 189 715
e 189 724
e 189 736
e 189 752
e 189 756
e 189 767
e 189 788
e 189 791
e 189 807
e 189 846
e 189 862
e 189 864
e 189 880
e 189 889
e 189 890
e 189 895
e 189 897
e 189 905
e 189 920
e 189 927
e 189 941
e 189 947
e 189 976
e 189 985
e 190 253
e 190 257
e 190 258
e 190 263
e 190 274
e 190 275
e 190 279
e 190 284
e 190 290
e 190 298
e 190 316
e 190 317
e 190 323
e 190 328
e 190 333
e 190 350
e 190 357
e 190 361
e 190 365
e 190 366
e 190 374
e 190 380
e 190 381
e 190 398
e 190 406
e 190 415
e 190 416
e 190 418
e 190 421
e 190 433
e 190 444
e 190 454
e 190 455
e 190 457
e 190 459
e 190 463
e 190 480
e 190 497
e 190 505
e 190 511
e 190 513
e 190 558
e 190 570
e 190 609
e 190 629
e 190 632
e 190 648
e 190 657
e 190 658
e 190 662
e 190 694
e 190 709
e 190 719
e 190 727
e 190 729
e 190 736
e 190 737
e 190 752
e 190 761
e 190 762
e 190 763
e 190 766
e 190 768
e 190 775
e 190 803
e 190 807
e 190 810
e 190 816
e 190 818
e 190 843
e 190 850
e 190 854
e 190 867
e 190 903
e 190 904
e 190 928
e 190 931
e 190 936
e 190 949
e 190 951
e 190 977
e 190 986
e 190 994
e 190 996
e 191 257
e 191 262
e 191 263
e 191 267
e 191 276
e 191 280
e 191 293
e 191 300
e 191 322
e 191 327
e 191 336
e 191 340
e 191 343
e 191 361
e 191 378
e 191 402
e 191 409
e 191 412
e 191 418
e 191 425
e 191 437
e 191 439
e 191 455
e 191 467
e 191 498
e 191 503
e 191 512
e 191 516
e 191 518
e 191 521
e 191 523
e 191 531
e 191 532
e 191 543
e 191 566
e 191 572
e 191 573
e 191 581
e 191 582
e 191 594
e 191 598
e 191 603
e 191 608
e 191 618
e 191 620
e 191 628
e 191 632
e 191 681
e 191 693
e 191 695
e 191 700
e 191 715
e 191 727
e 191 729
e 191 731
e 191 736
e 191 741
e 191 743
e 191 748
e 191 750
e 191 769
e 191 781
e 191 782
e 191 807
e 191 823
e 191 826
e 191 863
e 191 869
e 191 877
e 191 889
e 191 909
e 191 912
e 191 919
e 191 920
e 191 942
e 191 974
e 191 991
e 192 265
e 192 268
e 192 275
e 192 285
e 192 286
e 192 304
e 192 316
e 192 321
e 192 323
e 192 333
e 192 337
e 192 346
e 192 364
e 192 373
e 192 375
e 192 386
e 192 401
e 192 418
e 192 423
e 192 430
e 192 458
e 192 475
e 192 478
e 192 487
e 192 490
e 192 505
e 192 527
e 192 556
e 192 562
e 192 592
e 192 608
e 192 618
e 192 633
e 192 657
e 192 658
e 192 674
e 192 675
e 192 703
e 192 713
e 192 715
e 192 718
e 192 729
e 192 748
e 192 752
e 192 754
e 192 766
e 192 780
e 192 792
e 192 794
e 192 796
e 192 801
e 192 808
e 192 810
e 192 817
e 192 818
e 192 821
e 192 833
e 192 837
e 192 848
e 192 851
e 192 872
e 192 886
e 192 905
e 192 910
e 192 956
e 192 975
e 192 989
e 193 264
e 193 272
e 193 278
e 193 280
e 193 283
e 193 306
e 193 317
e 193 319
e 193 325
e 193 328
e 193 334
e 193 340
e 193 346
e 193 359
e 193 363
e 193 365
e 193 367
e 193 378
e 193 379
e 193 388
e 193 428
e 193 432
e 193 450
e 193 451
e 193 456
e 193 458
e 193 463
e 193 476
e 193 478
e 193 491
e 193 494
e 193 503
e 193 505
e 193 520
e 193 522
e 193 532
e 193 550
e 193 577
e 193 578
e 193 584
e 193 595
e 193 597
e 193 601
e 193 629
e 193 647
e 193 651
e 193 653
e 193 660
e 193 663
e 193 665
e 193 669
e 193 695
e 193 699
e 193 702
e 193 716
e 193 724
e 193 729
e 193 738
e 193 752
e 193 753
e 193 755
e 193 762
e 193 769
e 193 773
e 193 785
e 193 796
e 193 798
e 193 832
e 193 833
e 193 834
e 193 841
e 193 842
e 193 843
e 193 850
e 193 854
e 193 858
e 193 859
e 193 867
e 193 868
e 193 869
e 193 872
e 193 884
e 193 888
e 193 889
e 193 890
e 193 894
e 193 903
e 193 914
e 193 919
e 193 923
e 193 938
e 193 944
e 193 945
e 193 972
e 193 974
e 193 985
e 193 987
e 193 989
e 194 264
e 194 292
e 194 293
e 194 299
e 194 313
e 194 335
e 194 354
e 194 360
e 194 378
e 194 383
e 194 399
e 194 404
e 194 406
e 194 415
e 194 420
e 194 427
e 194 432
e 194 439
e 194 462
e 194 471
e 194 481
e 194 486
e 194 487
e 194 492
e 194 493
e 194 494
e 194 512
e 194 531
e 194 560
e 194 566
e 194 567
e 194 580
e 194 589
e 194 590
e 194 614
e 194 625
e 194 633
e 194 638
e 194 640
e 194 645
e 194 653
e 194 657
e 194 664
e 194 671
e 194 673
e 194 678
e 194 690
e 194 691
e 194 692
e 194 709
e 194 711
e 194 716
e 194 718
e 194 745
e 194 749
e 194 770
e 194 792
e 194 801
e 194 802
e 194 808
e 194 809
e 194 832
e 194 837
e 194 847
e 194 849
e 194 854
e 194 857
e 194 860
e 194 861
e 194 870
e 194 884
e 194 896
e 194 901
e 194 910
e 194 929
e 194 933
e 194 948
e 194 954
e 194 960
e 194 962
e 194 988
e 194 995
e 195 257
e 195 283
e 195 286
e 195 359
e 195 366
e 195 371
e 195 392
e 195 393
e 195 406
e 195 409
e 195 411
e 195 415
e 195 422
e 195 430
e 195 434
e 195 453
e 195 459
e 195 471
e 195 487
e 195 505
e 195 517
e 195 524
e 195 543
e 195 544
e 195 583
e 195 589
e 195 591
e 195 593
e 195 605
e 195 615
e 195 616
e 195 619
e 195 625
e 195 629
e 195 643
e 195 645
e 195 647
e 195 652
e 195 690
e 195 723
e 195 736
e 195 739
e 195 743
e 195 750
e 195 755
e 195 759
e 195 763
e 195 813
e 195 820
e 195 895
e 195 913
e 195 915
e 195 929
e 195 957
e 195 962
e 195 974
e 196 261
e 196 269
e 196 270
e 196 283
e 196 328
e 196 329
e 196 346
e 196 350
e 196 355
e 196 360
e 196 361
e 196 362
e 196 369
e 196 371
e 196 405
e 196 410
e 196 424
e 196 427
e 196 428
e 196 430
e 196 439
e 196 455
e 196 456
e 196 473
e 196 490
e 196 499
e 196 507
e 196 513
e 196 519
e 196 526
e 196 533
e 196 537
e 196 544
e 196 546
e 196 551
e 196 591
e 196 598
e 196 599
e 196 600
e 196 626
e 196 630
e 196 634
e 196 650
e 196 687
e 196 696
e 196 706
e 196 734
e 196 742
e 196 750
e 196 756
e 196 764
e 196 768
e 196 774
e 196 791
e 196 792
e 196 809
e 196 811
e 196 852
e 196 868
e 196 871
e 196 883
e 196 901
e 196 908
e 196 909
e 196 911
e 196 924
e 196 929
e 196 947
e 196 951
e 196 954
e 196 971
e 196 975
e 196 977
e 196 979
e 196 984
e 197 251
e 197 252
e 197 264
e 197 266
e 197 268
e 197 279
e 197 285
e 197 296
e 197 299
e 197 309
e 197 318
e 197 319
e 197 329
e 197 330
e 197 332
e 197 336
e 197 358
e 197 360
e 197 362
e 197 364
e 197 375
e 197 388
e 197 396
e 197 397
e 197 408
e 197 423
e 197 424
e 197 432
e 197 454
e 197 469
e 197 503
e 197 508
e 197 524
e 197 533
e 197 545
e 197 548
e 197 559
e 197 560
e 197 561
e 197 569
e 197 579
e 197 582
e 197 598
e 197 610
e 197 616
e 197 617
e 197 620
e 197 623
e 197 625
e 197 626
e 197 629
e 197 636
e 197 638
e 197 653
e 197 655
e 197 656
e 197 660
e 197 662
e 197 670
e 197 675
e 197 679
e 197 687
e 197 707
e 197 736
e 197 768
e 197 779
e 197 785
e 197 811
e 197 815
e 197 818
e 197 820
e 197 821
e 197 838
e 197 861
e 197 864
e 197 877
e 197 886
e 197 897
e 197 900
e 197 903
e 197 913
e 197 928
e 197 930
e 197 947
e 197 956
e 197 959
e 197 960
e 197 962
e 197 963
e 197 986
e 197 990
e 198 253
e 198 255
e 198 262
e 198 274
e 198 286
e 198 299
e 198 305
e 198 322
e 198 348
e 198 369
e 198 373
e 198 381
e 198 391
e 198 401
e 198 410
e 198 415
e 198 416
e 198 426
e 198 430
e 198 439
e 198 449
e 198 460
e 198 463
e 198 477
e 198 478
e 198 480
e 198 485
e 198 528
e 198 534
e 198 535
e 198 539
e 198 543
e 198 553
e 198 575
e 198 576
e 198 582
e 198 612
e 198 617
e 198 618
e 198 621
e 198 640
e 198 663
e 198 665
e 198 680
e 198 692
e 198 707
e 198 708
e 198 719
e 198 731
e 198 732
e 198 754
e 198 766
e 198 778
e 198 798
e 198 807
e 198 821
e 198 841
e 198 849
e 198 850
e 198 863
e 198 868
e 198 877
e 198 885
e 198 900
e 198 902
e 198 907
e 198 909
e 198 910
e 198 919
e 198 922
e 198 923
e 198 940
e 198 944
e 198 950
e 198 952
e 198 967
e 198 972
e 198 977
e 198 986
e 198 987
e 198 990
e 198 993
e 199 254
e 199 264
e 199 286
e 199 290
e 199 295
e 199 324
e 199 331
e 199 344
e 199 352
e 199 366
e 199 367
e 199 370
e 199 392
e 199 410
e 199 416
e 199 426
e 199 434
e 199 453
e 199 463
e 199 483
e 199 485
e 199 492
e 199 496
e 199 505
e 199 510
e 199 511
e 199 512
e 199 521
e 199 534
e 199 535
e 199 575
e 199 577
e 199 580
e 199 585
e 199 588
e 199 589
e 199 590
e 199 596
e 199 598
e 199 599
e 199 608
e 199 639
e 199 643
e 199 651
e 199 653
e 199 671
e 199 687
e 199 691
e 199 704
e 199 715
e 199 716
e 199 727
e 199 730
e 199 749
e 199 763
e 199 779
e 199 791
e 199 795
e 199 834
e 199 838
e 199 859
e 199 877
e 199 881
e 199 896
e 199 905
e 199 911
e 199 919
e 199 944
e 199 946
e 199 956
e 199 963
e 199 970
e 199 982
e 199 983
e 199 984
e 199 996
e 200 259
e 200 262
e 200 267
e 200 271
e 200 279
e 200 290
e 200 293
e 200 296
e 200 300
e 200 308
e 200 310
e 200 320
e 200 328
e 200 333
e 200 342
e 200 346
e 200 362
e 200 376
e 200 400
e 200 431
e 200 432
e 200 433
e 200 437
e 200 451
e 200 462
e 200 464
e 200 495
e 200 510
e 200 531
e 200 540
e 200 541
e 200 574
e 200 595
e 200 610
e 200 612
e 200 613
e 200 650
e 200 663
e 200 665
e 200 677
e 200 679
e 200 680
e 200 694
e 200 703
e 200 713
e 200 714
e 200 718
e 200 730
e 200 738
e 200 756
e 200 768
e 200 773
e 200 779
e 200 783
e 200 790
e 200 845
e 200 852
e 200 859
e 200 864
e 200 886
e 200 905
e 200 906
e 200 907
e 200 917
e 200 919
e 200 927
e 200 931
e 200 933
e 200 938
e 200 948
e 200 959
e 200 966
e 200 976
e 200 987
e 200 991
e 201 258
e 201 265
e 201 277
e 201 293
e 201 303
e 201 319
e 201 336
e 201 349
e 201 352
e 201 357
e 201 359
e 201 370
e 201 381
e 201 389
e 201 395
e 201 399
e 201 403
e 201 410
e 201 442
e 201 449
e 201 456
e 201 458
e 201 464
e 201 476
e 201 481
e 201 488
e 201 514
e 201 528
e 201 542
e 201 551
e 201 559
e 201 571
e 201 594
e 201 599
e 201 601
e 201 610
e 201 612
e 201 620
e 201 630
e 201 631
e 201 639
e 201 648
e 201 653
e 201 654
e 201 672
e 201 691
e 201 699
e 201 721
e 201 738
e 201 749
e 201 755
e 201 757
e 201 767
e 201 794
e 201 795
e 201 819
e 201 824
e 201 829
e 201 852
e 201 859
e 201 865
e 201 866
e 201 887
e 201 888
e 201 889
e 201 895
e 201 898
e 201 915
e 201 942
e 201 960
e 201 962
e 201 987
e 201 999
e 202 253
e 202 264
e 202 271
e 202 277
e 202 312
e 202 314
e 202 321
e 202 328
e 202 350
e 202 351
e 202 379
e 202 381
e 202 423
e 202 430
e 202 440
e 202 447
e 202 463
e 202 468
e 202 489
e 202 490
e 202 496
e 202 503
e 202 509
e 202 512
e 202 514
e 202 521
e 202 528
e 202 535
e 202 564
e 202 580
e 202 585
e 202 592
e 202 607
e 202 615
e 202 616
e 202 620
e 202 635
e 202 648
e 202 657
e 202 660
e 202 671
e 202 679
e 202 702
e 202 717
e 202 729
e 202 753
e 202 757
e 202 778
e 202 779
e 202 782
e 202 784
e 202 787
e 202 807
e 202 809
e 202 815
e 202 819
e 202 850
e 202 853
e 202 856
e 202 864
e 202 869
e 202 873
e 202 876
e 202 888
e 202 893
e 202 894
e 202 912
e 202 915
e 202 918
e 202 919
e 202 920
e 202 922
e 202 929
e 202 939
e 202 945
e 202 948
e 202 962
e 202 999
e 202 1000
e 203 251
e 203 260
e 203 278
e 203 291
e 203 299
e 203 305
e 203 306
e 203 326
e 203 330
e 203 372
e 203 373
e 203 378
e 203 396
e 203 397
e 203 407
e 203 410
e 203 422
e 203 426
e 203 429
e 203 440
e 203 449
e 203 466
e 203 494
e 203 528
e 203 541
e 203 548
e 203 567
e 203 577
e 203 586
e 203 607
e 203 622
e 203 623
e 203 636
e 203 641
e 203 642
e 203 650
e 203 661
e 203 663
e 203 670
e 203 673
e 203 693
e 203 694
e 203 703
e 203 706
e 203 712
e 203 716
e 203 723
e 203 740
e 203 741
e 203 744
e 203 765
e 203 766
e 203 776
e 203 795
e 203 818
e 203 822
e 203 830
e 203 848
e 203 856
e 203 857
e 203 861
e 203 868
e 203 872
e 203 881
e 203 890
e 203 894
e 203 900
e 203 910
e 203 920
e 203 935
e 203 942
e 203 984
e 203 988
e 203 995
e 203 996
e 204 253
e 204 272
e 204 286
e 204 303
e 204 305
e 204 308
e 204 311
e 204 316
e 204 320
e 204 322
e 204 334
e 204 341
e 204 351
e 204 376
e 204 379
e 204 391
e 204 416
e 204 417
e 204 420
e 204 424
e 204 432
e 204 450
e 204 458
e 204 461
e 204 480
e 204 481
e 204 483
e 204 486
e 204 488
e 204 495
e 204 497
e 204 510
e 204 511
e 204 520
e 204 532
e 204 539
e 204 543
e 204 548
e 204 550
e 204 555
e 204 556
e 204 560
e 204 561
e 204 567
e 204 574
e 204 576
e 204 599
e 204 610
e 204 621
e 204 653
e 204 659
e 204 670
e 204 703
e 204 704
e 204 720
e 204 722
e 204 735
e 204 737
e 204 743
e 204 758
e 204 759
e 204 761
e 204 784
e 204 785
e 204 800
e 204 804
e 204 821
e 204 834
e 204 845
e 204 856
e 204 865
e 204 872
e 204 893
e 204 900
e 204 911
e 204 912
e 204 913
e 204 921
e 204 952
e 204 958
e 204 969
e 204 974
e 204 976
e 204 986
e 204 1000
e 205 260
e 205 263
e 205 272
e 205 281
e 205 292
e 205 298
e 205 301
e 205 317
e 205 344
e 205 350
e 205 363
e 205 366
e 205 373
e 205 407
e 205 409
e 205 412
e 205 422
e 205 430
e 205 436
e 205 481
e 205 483
e 205 486
e 205 487
e 205 496
e 205 497
e 205 503
e 205 507
e 205 532
e 205 539
e 205 572
e 205 582
e 205 583
e 205 589
e 205 613
e 205 618
e 205 625
e 205 631
e 205 657
e 205 696
e 205 705
e 205 722
e 205 731
e 205 732
e 205 761
e 205 762
e 205 775
e 205 790
e 205 793
e 205 798
e 205 801
e 205 805
e 205 814
e 205 816
e 205 824
e 205 829
e 205 832
e 205 835
e 205 838
e 205 849
e 205 857
e 205 877
e 205 880
e 205 885
e 205 890
e 205 902
e 205 912
e 205 916
e 205 917
e 205 946
e 205 966
e 205 971
e 205 977
e 205 979
e 205 980
e 205 993
e 205 995
e 206 269
e 206 287
e 206 299
e 206 315
e 206 317
e 206 319
e 206 320
e 206 323
e 206 348
e 206 362
e 206 398
e 206 401
e 206 402
e 206 407
e 206 411
e 206 415
e 206 418
e 206 444
e 206 452
e 206 468
e 206 471
e 206 472
e 206 477
e 206 482
e 206 484
e 206 492
e 206 504
e 206 521
e 206 532
e 206 535
e 206 542
e 206 559
e 206 573
e 206 574
e 206 576
e 206 578
e 206 580
e 206 601
e 206 628
e 206 630
e 206 642
e 206 643
e 206 655
e 206 659
e 206 660
e 206 664
e 206 703
e 206 725
e 206 729
e 206 742
e 206 752
e 206 761
e 206 773
e 206 789
e 206 804
e 206 810
e 206 838
e 206 842
e 206 844
e 206 906
e 206 907
e 206 931
e 206 936
e 206 943
e 206 949
e 206 979
e 206 980
e 206 985
e 206 993
e 206 995
e 207 284
e 207 296
e 207 301
e 207 323
e 207 326
e 207 338
e 207 360
e 207 384
e 207 392
e 207 397
e 207 400
e 207 412
e 207 413
e 207 414
e 207 421
e 207 424
e 207 425
e 207 428
e 207 448
e 207 451
e 207 459
e 207 464
e 207 467
e 207 496
e 207 497
e 207 519
e 207 520
e 207 524
e 207 560
e 207 562
e 207 567
e 207 571
e 207 587
e 207 589
e 207 598
e 207 602
e 207 610
e 207 634
e 207 643
e 207 649
e 207 658
e 207 660
e 207 695
e 207 696
e 207 744
e 207 747
e 207 769
e 207 790
e 207 795
e 207 799
e 207 812
e 207 822
e 207 828
e 207 829
e 207 831
e 207 872
e 207 878
e 207 895
e 207 904
e 207 912
e 207 928
e 207 931
e 207 950
e 207 960
e 207 971
e 207 975
e 207 978
e 207 986
e 207 1000
e 208 252
e 208 260
e 208 268
e 208 271
e 208 273
e 208 280
e 208 299
e 208 305
e 208 308
e 208 335
e 208 337
e 208 348
e 208 378
e 208 387
e 208 398
e 208 399
e 208 400
e 208 432
e 208 438
e 208 440
e 208 446
e 208 448
e 208 451
e 208 463
e 208 479
e 208 543
e 208 545
e 208 555
e 208 560
e 208 565
e 208 570
e 208 586
e 208 589
e 208 614
e 208 619
e 208 630
e 208 638
e 208 644
e 208 645
e 208 651
e 208 652
e 208 657
e 208 658
e 208 662
e 208 665
e 208 667
e 208 673
e 208 685
e 208 695
e 208 719
e 208 733
e 208 738
e 208 739
e 208 740
e 208 754
e 208 764
e 208 782
e 208 791
e 208 797
e 208 798
e 208 808
e 208 811
e 208 829
e 208 834
e 208 836
e 208 854
e 208 867
e 208 883
e 208 889
e 208 905
e 208 909
e 208 918
e 208 919
e 208 925
e 208 937
e 208 946
e 208 958
e 208 970
e 209 256
e 209 267
e 209 313
e 209 324
e 209 330
e 209 357
e 209 392
e 209 403
e 209 407
e 209 416
e 209 417
e 209 421
e 209 439
e 209 450
e 209 471
e 209 477
e 209 479
e 209 487
e 209 491
e 209 534
e 209 536
e 209 537
e 209 543
e 209 551
e 209 557
e 209 562
e 209 568
e 209 574
e 209 585
e 209 589
e 209 590
e 209 599
e 209 613
e 209 620
e 209 625
e 209 626
e 209 633
e 209 634
e 209 635
e 209 638
e 209 651
e 209 664
e 209 669
e 209 670
e 209 682
e 209 705
e 209 717
e 209 746
e 209 747
e 209 753
e 209 766
e 209 772
e 209 775
e 209 779
e 209 787
e 209 791
e 209 800
e 209 810
e 209 835
e 209 840
e 209 841
e 209 843
e 209 848
e 209 861
e 209 863
e 209 866
e 209 881
e 209 883
e 209 891
e 209 892
e 209 912
e 209 944
e 209 957
e 209 975
e 209 980
e 210 293
e 210 295
e 210 300
e 210 328
e 210 330
e 210 336
e 210 349
e 210 361
e 210 376
e 210 405
e 210 407
e 210 408
e 210 413
e 210 431
e 210 433
e 210 467
e 210 469
e 210 478
e 210 480
e 210 482
e 210 484
e 210 487
e 210 490
e 210 493
e 210 494
e 210 510
e 210 523
e 210 527
e 210 528
e 210 545
e 210 548
e 210 550
e 210 554
e 210 560
e 210 568
e 210 595
e 210 596
e 210 598
e 210 607
e 210 608
e 210 609
e 210 616
e 210 630
e 210 655
e 210 665
e 210 685
e 210 687
e 210 703
e 210 718
e 210 722
e 210 726
e 210 728
e 210 754
e 210 758
e 210 766
e 210 775
e 210 782
e 210 798
e 210 800
e 210 813
e 210 824
e 210 832
e 210 839
e 210 843
e 210 875
e 210 885
e 210 891
e 210 892
e 210 896
e 210 908
e 210 919
e 210 934
e 210 945
e 210 948
e 210 950
e 210 953
e 210 966
e 210 981
e 210 985
e 210 986
e 210 991
e 210 994
e 211 266
e 211 271
e 211 278
e 211 282
e 211 288
e 211 292
e 211 313
e 211 314
e 211 327
e 211 340
e 211 349
e 211 360
e 211 384
e 211 387
e 211 389
e 211 391
e 211 399
e 211 417
e 211 420
e 211 426
e 211 436
e 211 438
e 211 439
e 211 460
e 211 464
e 211 466
e 211 467
e 211 474
e 211 481
e 211 493
e 211 506
e 211 512
e 211 524
e 211 555
e 211 565
e 211 567
e 211 570
e 211 572
e 211 573
e 211 583
e 211 585
e 211 589
e 211 626
e 211 645
e 211 649
e 211 660
e 211 699
e 211 715
e 211 717
e 211 745
e 211 766
e 211 785
e 211 793
e 211 819
e 211 820
e 211 823
e 211 826
e 211 831
e 211 839
e 211 840
e 211 852
e 211 853
e 211 885
e 211 890
e 211 909
e 211 949
e 211 951
e 211 954
e 211 959
e 211 969
e 211 979
e 211 988
e 211 996
e 212 259
e 212 277
e 212 287
e 212 288
e 212 291
e 212 296
e 212 302
e 212 324
e 212 342
e 212 350
e 212 361
e 212 362
e 212 364
e 212 371
e 212 381
e 212 404
e 212 409
e 212 411
e 212 425
e 212 426
e 212 443
e 212 477
e 212 478
e 212 480
e 212 481
e 212 484
e 212 485
e 212 495
e 212 502
e 212 504
e 212 512
e 212 535
e 212 536
e 212 540
e 212 549
e 212 556
e 212 561
e 212 565
e 212 586
e 212 593
e 212 604
e 212 610
e 212 613
e 212 618
e 212 621
e 212 627
e 212 635
e 212 648
e 212 665
e 212 668
e 212 678
e 212 679
e 212 686
e 212 687
e 212 694
e 212 706
e 212 752
e 212 772
e 212 780
e 212 814
e 212 821
e 212 824
e 212 830
e 212 848
e 212 853
e 212 858
e 212 864
e 212 877
e 212 885
e 212 892
e 212 906
e 212 919
e 212 927
e 212 937
e 212 941
e 212 958
e 212 962
e 212 978
e 212 983
e 212 1000
e 213 252
e 213 253
e 213 257
e 213 261
e 213 263
e 213 277
e 213 295
e 213 307
e 213 311
e 213 314
e 213 320
e 213 323
e 213 324
e 213 328
e 213 332
e 213 354
e 213 358
e 213 381
e 213 396
e 213 405
e 213 427
e 213 430
e 213 440
e 213 444
e 213 445
e 213 446
e 213 474
e 213 489
e 213 508
e 213 512
e 213 514
e 213 519
e 213 528
e 213 531
e 213 536
e 213 543
e 213 551
e 213 562
e 213 566
e 213 568
e 213 580
e 213 584
e 213 617
e 213 638
e 213 642
e 213 654
e 213 671
e 213 674
e 213 684
e 213 685
e 213 694
e 213 700
e 213 706
e 213 721
e 213 733
e 213 738
e 213 746
e 213 757
e 213 759
e 213 778
e 213 792
e 213 797
e 213 799
e 213 834
e 213 839
e 213 869
e 213 872
e 213 882
e 213 886
e 213 903
e 213 914
e 213 915
e 213 934
e 213 952
e 213 963
e 213 989
e 214 255
e 214 293
e 214 294
e 214 298
e 214 303
e 214 320
e 214 329
e 214 345
e 214 355
e 214 376
e 214 408
e 214 428
e 214 439
e 214 450
e 214 461
e 214 471
e 214 473
e 214 480
e 214 482
e 214 485
e 214 495
e 214 500
e 214 509
e 214 527
e 214 534
e 214 566
e 214 573
e 214 588
e 214 596
e 214 597
e 214 598
e 214 604
e 214 625
e 214 630
e 214 633
e 214 642
e 214 645
e 214 668
e 214 673
e 214 680
e 214 691
e 214 695
e 214 702
e 214 704
e 214 724
e 214 727
e 214 742
e 214 754
e 214 759
e 214 781
e 214 799
e 214 801
e 214 804
e 214 817
e 214 821
e 214 832
e 214 834
e 214 851
e 214 883
e 214 888
e 214 889
e 214 893
e 214 899
e 214 907
e 214 908
e 214 921
e 214 945
e 214 963
e 214 982
e 214 986
e 214 996
e 214 998
e 215 251
e 215 279
e 215 288
e 215 290
e 215 296
e 215 304
e 215 306
e 215 313
e 215 314
e 215 326
e 215 327
e 215 334
e 215 358
e 215 364
e 215 395
e 215 420
e 215 421
e 215 442
e 215 446
e 215 467
e 215 471
e 215 479
e 215 490
e 215 501
e 215 511
e 215 527
e 215 535
e 215 537
e 215 540
e 215 541
e 215 545
e 215 578
e 215 594
e 215 604
e 215 605
e 215 614
e 215 636
e 215 666
e 215 674
e 215 686
e 215 704
e 215 705
e 215 717
e 215 731
e 215 737
e 215 741
e 215 752
e 215 766
e 215 772
e 215 776
e 215 793
e 215 821
e 215 830
e 215 852
e 215 854
e 215 857
e 215 865
e 215 880
e 215 885
e 215 901
e 215 913
e 215 915
e 215 918
e 215 919
e 215 921
e 215 936
e 215 937
e 215 987
e 215 991
e 216 255
e 216 257
e 216 265
e 216 266
e 216 276
e 216 278
e 216 279
e 216 296
e 216 313
e 216 314
e 216 328
e 216 331
e 216 356
e 216 359
e 216 361
e 216 364
e 216 391
e 216 399
e 216 403
e 216 404
e 216 406
e 216 413
e 216 422
e 216 427
e 216 429
e 216 432
e 216 435
e 216 439
e 216 440
e 216 446
e 216 447
e 216 450
e 216 489
e 216 512
e 216 514
e 216 525
e 216 538
e 216 539
e 216 540
e 216 545
e 216 546
e 216 552
e 216 565
e 216 585
e 216 587
e 216 606
e 216 620
e 216 621
e 216 645
e 216 653
e 216 685
e 216 689
e 216 695
e 216 708
e 216 712
e 216 730
e 216 742
e 216 743
e 216 754
e 216 778
e 216 786
e 216 810
e 216 817
e 216 819
e 216 824
e 216 826
e 216 827
e 216 829
e 216 831
e 216 835
e 216 836
e 216 845
e 216 874
e 216 880
e 216 882
e 216 901
e 216 919
e 216 931
e 216 938
e 216 940
e 216 946
e 216 956
e 216 974
e 216 979
e 216 989
e 216 993
e 217 251
e 217 259
e 217 261
e 217 276
e 217 279
e 217 289
e 217 290
e 217 293
e 217 298
e 217 309
e 217 313
e 217 318
e 217 323
e 217 339
e 217 340
e 217 341
e 217 349
e 217 353
e 217 357
e 217 359
e 217 377
e 217 384
e 217 388
e 217 399
e 217 418
e 217 430
e 217 437
e 217 440
e 217 454
e 217 476
e 217 478
e 217 506
e 217 510
e 217 526
e 217 541
e 217 545
e 217 547
e 217 558
e 217 586
e 217 619
e 217 631
e 217 640
e 217 645
e 217 661
e 217 663
e 217 669
e 217 676
e 217 690
e 217 692
e 217 695
e 217 698
e 217 699
e 217 701
e 217 724
e 217 730
e 217 756
e 217 761
e 217 765
e 217 769
e 217 781
e 217 784
e 217 803
e 217 810
e 217 813
e 217 824
e 217 828
e 217 832
e 217 839
e 217 840
e 217 846
e 217 859
e 217 874
e 217 900
e 217 915
e 217 923
e 217 928
e 217 940
e 217 944
e 217 958
e 217 963
e 217 965
e 217 979
e 217 994
e 217 999
e 218 270
e 218 283
e 218 290
e 218 297
e 218 305
e 218 308
e 218 313
e 218 316
e 218 317
e 218 347
e 218 360
e 218 371
e 218 387
e 218 413
e 218 417
e 218 425
e 218 429
e 218 451
e 218 462
e 218 471
e 218 506
e 218 518
e 218 525
e 218 545
e 218 549
e 218 550
e 218 559
e 218 585
e 218 593
e 218 602
e 218 608
e 218 612
e 218 615
e 218 619
e 218 620
e 218 627
e 218 629
e 218 644
e 218 654
e 218 674
e 218 675
e 218 676
e 218 681
e 218 700
e 218 709
e 218 710
e 218 720
e 218 726
e 218 739
e 218 742
e 218 745
e 218 808
e 218 810
e 218 826
e 218 845
e 218 851
e 218 858
e 218 870
e 218 875
e 218 905
e 218 906
e 218 915
e 218 917
e 218 928
e 218 941
e 218 948
e 218 952
e 218 960
e 218 978
e 218 994
e 218 999
e 219 260
e 219 271
e 219 279
e 219 288
e 219 293
e 219 294
e 219 305
e 219 308
e 219 309
e 219 311
e 219 315
e 219 341
e 219 343
e 219 346
e 219 376
e 219 378
e 219 379
e 219 386
e 219 409
e 219 422
e 219 424
e 219 426
e 219 428
e 219 463
e 219 468
e 219 473
e 219 477
e 219 479
e 219 513
e 219 515
e 219 529
e 219 550
e 219 568
e 219 584
e 219 591
e 219 619
e 219 625
e 219 628
e 219 644
e 219 646
e 219 649
e 219 650
e 219 652
e 219 667
e 219 669
e 219 693
e 219 696
e 219 697
e 219 703
e 219 723
e 219 730
e 219 747
e 219 758
e 219 765
e 219 777
e 219 806
e 219 814
e 219 827
e 219 836
e 219 840
e 219 855
e 219 857
e 219 863
e 219 865
e 219 867
e 219 872
e 219 874
e 219 881
e 219 887
e 219 895
e 219 908
e 219 909
e 219 931
e 219 936
e 219 942
e 219 961
e 219 966
e 219 973
e 219 979
e 219 990
e 220 265
e 220 294
e 220 329
e 220 335
e 220 345
e 220 351
e 220 371
e 220 377
e 220 400
e 220 417
e 220 430
e 220 432
e 220 441
e 220 465
e 220 466
e 220 473
e 220 475
e 220 486
e 220 487
e 220 490
e 220 501
e 220 508
e 220 513
e 220 532
e 220 537
e 220 538
e 220 544
e 220 578
e 220 583
e 220 607
e 220 614
e 220 615
e 220 620
e 220 626
e 220 627
e 220 644
e 220 647
e 220 659
e 220 681
e 220 687
e 220 715
e 220 747
e 220 757
e 220 816
e 220 817
e 220 824
e 220 826
e 220 827
e 220 830
e 220 836
e 220 849
e 220 861
e 220 875
e 220 882
e 220 894
e 220 905
e 220 916
e 220 922
e 220 943
e 220 945
e 220 952
e 220 957
e 220 958
e 220 960
e 220 981
e 220 982
e 220 983
e 221 258
e 221 260
e 221 287
e 221 291
e 221 294
e 221 299
e 221 315
e 221 319
e 221 340
e 221 343
e 221 358
e 221 362
e 221 365
e 221 394
e 221 401
e 221 410
e 221 416
e 221 418
e 221 424
e 221 425
e 221 459
e 221 468
e 221 479
e 221 500
e 221 502
e 221 505
e 221 512
e 221 528
e 221 533
e 221 556
e 221 572
e 221 573
e 221 577
e 221 582
e 221 584
e 221 590
e 221 595
e 221 609
e 221 613
e 221 625
e 221 636
e 221 637
e 221 666
e 221 672
e 221 675
e 221 677
e 221 679
e 221 684
e 221 714
e 221 753
e 221 762
e 221 769
e 221 774
e 221 789
e 221 799
e 221 813
e 221 820
e 221 827
e 221 846
e 221 847
e 221 862
e 221 865
e 221 883
e 221 886
e 221 888
e 221 908
e 221 939
e 221 940
e 221 958
e 221 968
e 221 970
e 221 982
e 221 989
e 221 996
e 222 261
e 222 272
e 222 282
e 222 298
e 222 308
e 222 331
e 222 344
e 222 347
e 222 350
e 222 370
e 222 378
e 222 379
e 222 380
e 222 401
e 222 418
e 222 438
e 222 439
e 222 444
e 222 466
e 222 476
e 222 477
e 222 480
e 222 494
e 222 512
e 222 515
e 222 536
e 222 564
e 222 565
e 222 566
e 222 589
e 222 598
e 222 605
e 222 607
e 222 624
e 222 645
e 222 647
e 222 681
e 222 684
e 222 686
e 222 690
e 222 692
e 222 704
e 222 706
e 222 713
e 222 719
e 222 735
e 222 740
e 222 741
e 222 757
e 222 771
e 222 776
e 222 777
e 222 779
e 222 784
e 222 785
e 222 798
e 222 823
e 222 831
e 222 835
e 222 842
e 222 853
e 222 857
e 222 892
e 222 898
e 222 905
e 222 909
e 222 920
e 222 926
e 222 929
e 222 931
e 222 939
e 222 941
e 222 961
e 222 966
e 222 967
e 222 982
e 222 984
e 222 986
e 223 251
e 223 262
e 223 274
e 223 327
e 223 337
e 223 339
e 223 358
e 223 367
e 223 369
e 223 388
e 223 390
e 223 395
e 223 397
e 223 398
e 223 416
e 223 422
e 223 447
e 223 450
e 223 494
e 223 500
e 223 511
e 223 531
e 223 539
e 223 542
e 223 552
e 223 564
e 223 567
e 223 573
e 223 575
e 223 580
e 223 592
e 223 605
e 223 616
e 223 621
e 223 628
e 223 633
e 223 635
e 223 639
e 223 641
e 223 648
e 223 660
e 223 666
e 223 671
e 223 678
e 223 682
e 223 696
e 223 698
e 223 701
e 223 709
e 223 729
e 223 735
e 223 746
e 223 750
e 223 762
e 223 768
e 223 771
e 223 797
e 223 807
e 223 813
e 223 826
e 223 828
e 223 829
e 223 830
e 223 849
e 223 862
e 223 875
e 223 877
e 223 904
e 223 913
e 223 916
e 223 920
e 223 943
e 223 963
e 223 968
e 223 975
e 223 984
e 223 992
e 223 999
e 224 254
e 224 256
e 224 274
e 224 282
e 224 285
e 224 290
e 224 303
e 224 309
e 224 317
e 224 344
e 224 356
e 224 361
e 224 369
e 224 376
e 224 384
e 224 389
e 224 420
e 224 426
e 224 433
e 224 459
e 224 472
e 224 480
e 224 492
e 224 495
e 224 496
e 224 506
e 224 526
e 224 547
e 224 556
e 224 562
e 224 576
e 224 580
e 224 582
e 224 586
e 224 594
e 224 614
e 224 624
e 224 630
e 224 641
e 224 674
e 224 684
e 224 702
e 224 724
e 224 726
e 224 730
e 224 737
e 224 743
e 224 753
e 224 765
e 224 778
e 224 794
e 224 822
e 224 824
e 224 837
e 224 850
e 224 851
e 224 859
e 224 860
e 224 887
e 224 889
e 224 892
e 224 903
e 224 909
e 224 910
e 224 917
e 224 920
e 224 927
e 224 936
e 224 942
e 224 948
e 224 965
e 224 969
e 224 976
e 224 979
e 224 995
e 224 1000
e 225 264
e 225 294
e 225 316
e 225 319
e 225 326
e 225 330
e 225 346
e 225 353
e 225 356
e 225 358
e 225 361
e 225 374
e 225 378
e 225 415
e 225 416
e 225 419
e 225 428
e 225 431
e 225 432
e 225 444
e 225 446
e 225 479
e 225 486
e 225 495
e 225 505
e 225 509
e 225 523
e 225 529
e 225 539
e 225 561
e 225 562
e 225 581
e 225 603
e 225 606
e 225 610
e 225 615
e 225 641
e 225 644
e 225 649
e 225 655
e 225 665
e 225 666
e 225 671
e 225 679
e 225 688
e 225 694
e 225 703
e 225 706
e 225 708
e 225 710
e 225 722
e 225 725
e 225 728
e 225 746
e 225 749
e 225 785
e 225 810
e 225 817
e 225 818
e 225 823
e 225 829
e 225 831
e 225 850
e 225 876
e 225 889
e 225 898
e 225 923
e 225 933
e 225 938
e 225 950
e 225 955
e 225 965
e 225 969
e 225 978
e 225 982
e 225 991
e 225 994
e 225 997
e 226 256
e 226 262
e 226 272
e 226 283
e 226 289
e 226 305
e 226 321
e 226 325
e 226 335
e 226 340
e 226 346
e 226 381
e 226 404
e 226 411
e 226 418
e 226 432
e 226 435
e 226 446
e 226 465
e 226 474
e 226 478
e 226 499
e 226 501
e 226 522
e 226 524
e 226 527
e 226 529
e 226 540
e 226 541
e 226 554
e 226 570
e 226 575
e 226 578
e 226 614
e 226 615
e 226 653
e 226 654
e 226 660
e 226 676
e 226 678
e 226 688
e 226 695
e 226 699
e 226 708
e 226 737
e 226 759
e 226 771
e 226 795
e 226 800
e 226 803
e 226 821
e 226 827
e 226 866
e 226 873
e 226 878
e 226 881
e 226 899
e 226 918
e 226 937
e 226 960
e 226 967
e 226 968
e 226 977
e 226 979
e 226 982
e 227 252
e 227 281
e 227 284
e 227 293
e 227 296
e 227 297
e 227 301
e 227 309
e 227 318
e 227 322
e 227 324
e 227 342
e 227 345
e 227 352
e 227 366
e 227 369
e 227 412
e 227 414
e 227 415
e 227 416
e 227 430
e 227 432
e 227 442
e 227 447
e 227 455
e 227 482
e 227 485
e 227 489
e 227 503
e 227 529
e 227 532
e 227 534
e 227 582
e 227 599
e 227 613
e 227 620
e 227 621
e 227 632
e 227 633
e 227 651
e 227 654
e 227 660
e 227 664
e 227 667
e 227 686
e 227 689
e 227 707
e 227 718
e 227 724
e 227 725
e 227 744
e 227 772
e 227 773
e 227 786
e 227 788
e 227 792
e 227 798
e 227 799
e 227 804
e 227 806
e 227 819
e 227 840
e 227 842
e 227 845
e 227 851
e 227 852
e 227 874
e 227 875
e 227 882
e 227 892
e 227 894
e 227 897
e 227 907
e 227 912
e 227 919
e 227 930
e 227 941
e 227 946
e 227 952
e 227 964
e 227 966
e 227 970
e 227 976
e 227 977
e 227 989
e 228 260
e 228 268
e 228 269
e 228 272
e 228 317
e 228 333
e 228 338
e 228 342
e 228 348
e 228 359
e 228 371
e 228 409
e 228 424
e 228 428
e 228 442
e 228 446
e 228 447
e 228 452
e 228 465
e 228 470
e 228 474
e 228 478
e 228 479
e 228 516
e 228 518
e 228 524
e 228 546
e 228 550
e 228 551
e 228 555
e 228 559
e 228 591
e 228 596
e 228 598
e 228 601
e 228 605
e 228 609
e 228 623
e 228 631
e 228 653
e 228 670
e 228 684
e 228 688
e 228 696
e 228 706
e 228 712
e 228 767
e 228 784
e 228 795
e 228 819
e 228 824
e 228 838
e 228 848
e 228 850
e 228 872
e 228 877
e 228 880
e 228 882
e 228 886
e 228 893
e 228 896
e 228 911
e 228 963
e 228 994
e 229 253
e 229 257
e 229 261
e 229 271
e 229 274
e 229 311
e 229 314
e 229 322
e 229 343
e 229 357
e 229 360
e 229 361
e 229 365
e 229 378
e 229 383
e 229 389
e 229 392
e 229 430
e 229 437
e 229 440
e 229 444
e 229 449
e 229 450
e 229 456
e 229 461
e 229 472
e 229 477
e 229 479
e 229 482
e 229 526
e 229 530
e 229 532
e 229 543
e 229 564
e 229 575
e 229 589
e 229 591
e 229 593
e 229 596
e 229 604
e 229 607
e 229 617
e 229 631
e 229 656
e 229 660
e 229 668
e 229 676
e 229 697
e 229 707
e 229 708
e 229 744
e 229 755
e 229 760
e 229 765
e 229 785
e 229 792
e 229 803
e 229 807
e 229 840
e 229 846
e 229 851
e 229 863
e 229 868
e 229 869
e 229 876
e 229 890
e 229 891
e 229 900
e 229 901
e 229 918
e 229 935
e 229 937
e 229 952
e 229 957
e 229 960
e 229 963
e 229 965
e 229 976
e 229 988
e 229 989
e 229 990
e 229 991
e 229 995
e 230 268
e 230 280
e 230 281
e 230 285
e 230 309
e 230 321
e 230 326
e 230 331
e 230 347
e 230 351
e 230 352
e 230 355
e 230 384
e 230 404
e 230 407
e 230 413
e 230 435
e 230 443
e 230 451
e 230 472
e 230 498
e 230 501
e 230 505
e 230 507
e 230 508
e 230 523
e 230 531
e 230 533
e 230 541
e 230 551
e 230 566
e 230 572
e 230 575
e 230 586
e 230 599
e 230 637
e 230 642
e 230 648
e 230 656
e 230 668
e 230 674
e 230 681
e 230 702
e 230 718
e 230 724
e 230 743
e 230 751
e 230 768
e 230 770
e 230 784
e 230 805
e 230 811
e 230 829
e 230 832
e 230 834
e 230 836
e 230 839
e 230 840
e 230 856
e 230 865
e 230 874
e 230 880
e 230 901
e 230 908
e 230 920
e 230 923
e 230 945
e 230 949
e 230 954
e 230 956
e 230 957
e 230 958
e 230 966
e 230 971
e 230 986
e 230 992
e 231 260
e 231 265
e 231 274
e 231 280
e 231 305
e 231 324
e 231 326
e 231 332
e 231 335
e 231 341
e 231 342
e 231 345
e 231 346
e 231 354
e 231 361
e 231 379
e 231 399
e 231 402
e 231 403
e 231 406
e 231 418
e 231 436
e 231 452
e 231 463
e 231 476
e 231 479
e 231 481
e 231 483
e 231 493
e 231 496
e 231 500
e 231 503
e 231 506
e 231 526
e 231 543
e 231 545
e 231 549
e 231 551
e 231 552
e 231 563
e 231 565
e 231 566
e 231 583
e 231 594
e 231 603
e 231 610
e 231 620
e 231 642
e 231 691
e 231 708
e 231 724
e 231 732
e 231 744
e 231 757
e 231 759
e 231 780
e 231 786
e 231 791
e 231 800
e 231 803
e 231 828
e 231 842
e 231 846
e 231 860
e 231 862
e 231 899
e 231 906
e 231 914
e 231 918
e 231 944
e 231 946
e 231 948
e 231 951
e 231 952
e 231 961
e 231 987
e 232 257
e 232 261
e 232 262
e 232 271
e 232 280
e 232 288
e 232 289
e 232 293
e 232 311
e 232 316
e 232 328
e 232 346
e 232 347
e 232 353
e 232 356
e 232 366
e 232 368
e 232 382
e 232 398
e 232 426
e 232 433
e 232 442
e 232 460
e 232 467
e 232 472
e 232 489
e 232 492
e 232 493
e 232 497
e 232 501
e 232 511
e 232 520
e 232 522
e 232 527
e 232 530
e 232 531
e 232 550
e 232 598
e 232 601
e 232 605
e 232 625
e 232 641
e 232 649
e 232 654
e 232 655
e 232 660
e 232 663
e 232 670
e 232 695
e 232 701
e 232 703
e 232 706
e 232 713
e 232 719
e 232 721
e 232 726
e 232 732
e 232 742
e 232 747
e 232 756
e 232 764
e 232 780
e 232 782
e 232 784
e 232 793
e 232 804
e 232 807
e 232 813
e 232 824
e 232 830
e 232 839
e 232 844
e 232 854
e 232 856
e 232 858
e 232 859
e 232 862
e 232 863
e 232 867
e 232 888
e 232 911
e 232 923
e 232 927
e 232 930
e 232 935
e 232 936
e 232 967
e 232 972
e 232 977
e 232 985
e 232 986
e 233 251
e 233 255
e 233 272
e 233 280
e 233 282
e 233 284
e 233 301
e 233 321
e 233 329
e 233 339
e 233 373
e 233 379
e 233 390
e 233 399
e 233 402
e 233 406
e 233 421
e 233 432
e 233 435
e 233 441
e 233 443
e 233 483
e 233 539
e 233 546
e 233 547
e 233 559
e 233 586
e 233 587
e 233 595
e 233 599
e 233 619
e 233 652
e 233 668
e 233 711
e 233 726
e 233 733
e 233 747
e 233 758
e 233 767
e 233 768
e 233 773
e 233 777
e 233 788
e 233 791
e 233 795
e 233 805
e 233 825
e 233 838
e 233 841
e 233 855
e 233 863
e 233 867
e 233 883
e 233 892
e 233 905
e 233 908
e 233 945
e 233 959
e 233 963
e 233 988
e 234 275
e 234 291
e 234 297
e 234 306
e 234 315
e 234 339
e 234 351
e 234 352
e 234 367
e 234 385
e 234 397
e 234 404
e 234 415
e 234 416
e 234 425
e 234 445
e 234 450
e 234 467
e 234 472
e 234 486
e 234 494
e 234 511
e 234 532
e 234 557
e 234 562
e 234 571
e 234 577
e 234 610
e 234 614
e 234 615
e 234 640
e 234 686
e 234 690
e 234 698
e 234 708
e 234 719
e 234 721
e 234 723
e 234 731
e 234 757
e 234 765
e 234 782
e 234 793
e 234 832
e 234 848
e 234 850
e 234 868
e 234 870
e 234 893
e 234 897
e 234 905
e 234 915
e 234 919
e 234 938
e 234 970
e 234 971
e 234 982
e 234 991
e 234 1000
e 235 251
e 235 278
e 235 292
e 235 300
e 235 302
e 235 306
e 235 310
e 235 314
e 235 320
e 235 321
e 235 328
e 235 342
e 235 358
e 235 373
e 235 379
e 235 381
e 235 407
e 235 414
e 235 415
e 235 416
e 235 425
e 235 433
e 235 443
e 235 452
e 235 455
e 235 464
e 235 466
e 235 478
e 235 490
e 235 496
e 235 510
e 235 523
e 235 535
e 235 536
e 235 539
e 235 542
e 235 566
e 235 587
e 235 596
e 235 603
e 235 609
e 235 612
e 235 614
e 235 620
e 235 623
e 235 626
e 235 634
e 235 654
e 235 670
e 235 673
e 235 675
e 235 682
e 235 690
e 235 695
e 235 707
e 235 708
e 235 712
e 235 722
e 235 723
e 235 726
e 235 728
e 235 732
e 235 734
e 235 736
e 235 740
e 235 769
e 235 775
e 235 779
e 235 787
e 235 808
e 235 818
e 235 827
e 235 871
e 235 887
e 235 892
e 235 905
e 235 931
e 235 932
e 235 934
e 235 944
e 235 948
e 235 975
e 235 989
e 235 999
e 236 266
e 236 270
e 236 272
e 236 283
e 236 292
e 236 297
e 236 321
e 236 323
e 236 338
e 236 353
e 236 354
e 236 356
e 236 358
e 236 363
e 236 376
e 236 396
e 236 407
e 236 409
e 236 411
e 236 417
e 236 421
e 236 431
e 236 450
e 236 454
e 236 459
e 236 474
e 236 477
e 236 480
e 236 484
e 236 488
e 236 512
e 236 515
e 236 525
e 236 535
e 236 555
e 236 556
e 236 558
e 236 559
e 236 569
e 236 582
e 236 587
e 236 606
e 236 607
e 236 611
e 236 623
e 236 634
e 236 642
e 236 660
e 236 664
e 236 667
e 236 685
e 236 714
e 236 722
e 236 760
e 236 766
e 236 778
e 236 784
e 236 824
e 236 825
e 236 832
e 236 837
e 236 847
e 236 877
e 236 907
e 236 908
e 236 932
e 236 950
e 236 955
e 236 959
e 236 980
e 236 981
e 236 998
e 237 262
e 237 263
e 237 268
e 237 275
e 237 280
e 237 281
e 237 284
e 237 299
e 237 303
e 237 339
e 237 343
e 237 350
e 237 362
e 237 370
e 237 392
e 237 399
e 237 401
e 237 402
e 237 406
e 237 407
e 237 429
e 237 444
e 237 449
e 237 451
e 237 453
e 237 455
e 237 459
e 237 462
e 237 467
e 237 474
e 237 477
e 237 480
e 237 483
e 237 485
e 237 486
e 237 491
e 237 498
e 237 512
e 237 519
e 237 540
e 237 556
e 237 565
e 237 575
e 237 588
e 237 611
e 237 624
e 237 625
e 237 634
e 237 640
e 237 670
e 237 682
e 237 684
e 237 693
e 237 694
e 237 709
e 237 713
e 237 741
e 237 749
e 237 776
e 237 786
e 237 793
e 237 794
e 237 818
e 237 821
e 237 824
e 237 840
e 237 842
e 237 866
e 237 893
e 237 903
e 237 907
e 237 908
e 237 910
e 237 916
e 237 917
e 237 931
e 237 944
e 237 959
e 237 966
e 237 970
e 237 971
e 237 976
e 238 253
e 238 256
e 238 278
e 238 298
e 238 310
e 238 312
e 238 317
e 238 333
e 238 339
e 238 345
e 238 362
e 238 366
e 238 376
e 238 386
e 238 388
e 238 400
e 238 404
e 238 412
e 238 420
e 238 426
e 238 429
e 238 431
e 238 454
e 238 465
e 238 470
e 238 524
e 238 531
e 238 545
e 238 546
e 238 550
e 238 553
e 238 555
e 238 559
e 238 566
e 238 575
e 238 579
e 238 599
e 238 608
e 238 620
e 238 635
e 238 636
e 238 641
e 238 648
e 238 649
e 238 666
e 238 674
e 238 681
e 238 685
e 238 690
e 238 701
e 238 703
e 238 711
e 238 726
e 238 747
e 238 748
e 238 773
e 238 784
e 238 812
e 238 827
e 238 831
e 238 850
e 238 851
e 238 854
e 238 873
e 238 897
e 238 899
e 238 903
e 238 904
e 238 911
e 238 914
e 238 915
e 238 940
e 238 951
e 238 955
e 238 956
e 238 957
e 238 961
e 238 994
e 239 265
e 239 266
e 239 275
e 239 277
e 239 302
e 239 318
e 239 326
e 239 339
e 239 343
e 239 346
e 239 368
e 239 380
e 239 425
e 239 432
e 239 437
e 239 439
e 239 440
e 239 441
e 239 445
e 239 448
e 239 452
e 239 456
e 239 457
e 239 480
e 239 490
e 239 497
e 239 511
e 239 519
e 239 527
e 239 540
e 239 562
e 239 565
e 239 567
e 239 573
e 239 587
e 239 598
e 239 610
e 239 611
e 239 628
e 239 631
e 239 641
e 239 644
e 239 654
e 239 656
e 239 663
e 239 668
e 239 671
e 239 682
e 239 690
e 239 697
e 239 698
e 239 713
e 239 719
e 239 723
e 239 739
e 239 747
e 239 762
e 239 778
e 239 785
e 239 787
e 239 799
e 239 819
e 239 826
e 239 838
e 239 858
e 239 862
e 239 871
e 239 883
e 239 887
e 239 898
e 239 912
e 239 914
e 239 927
e 239 941
e 239 966
e 239 974
e 239 977
e 240 252
e 240 263
e 240 270
e 240 297
e 240 302
e 240 308
e 240 330
e 240 364
e 240 413
e 240 429
e 240 434
e 240 439
e 240 447
e 240 456
e 240 457
e 240 460
e 240 463
e 240 465
e 240 470
e 240 471
e 240 501
e 240 503
e 240 506
e 240 516
e 240 517
e 240 521
e 240 522
e 240 525
e 240 526
e 240 533
e 240 534
e 240 540
e 240 554
e 240 560
e 240 569
e 240 575
e 240 576
e 240 582
e 240 587
e 240 594
e 240 604
e 240 612
e 240 622
e 240 630
e 240 631
e 240 634
e 240 642
e 240 644
e 240 659
e 240 662
e 240 674
e 240 692
e 240 693
e 240 704
e 240 713
e 240 721
e 240 722
e 240 733
e 240 736
e 240 758
e 240 773
e 240 776
e 240 782
e 240 785
e 240 790
e 240 794
e 240 799
e 240 803
e 240 804
e 240 807
e 240 814
e 240 822
e 240 840
e 240 874
e 240 879
e 240 884
e 240 897
e 240 905
e 240 907
e 240 909
e 240 920
e 240 933
e 240 937
e 240 969
e 240 977
e 240 987
e 241 253
e 241 258
e 241 270
e 241 290
e 241 291
e 241 298
e 241 305
e 241 307
e 241 309
e 241 323
e 241 330
e 241 350
e 241 368
e 241 404
e 241 408
e 241 414
e 241 415
e 241 417
e 241 419
e 241 449
e 241 455
e 241 462
e 241 474
e 241 475
e 241 478
e 241 485
e 241 488
e 241 509
e 241 541
e 241 553
e 241 568
e 241 572
e 241 578
e 241 585
e 241 590
e 241 605
e 241 610
e 241 618
e 241 627
e 241 630
e 241 637
e 241 639
e 241 640
e 241 643
e 241 645
e 241 646
e 241 647
e 241 660
e 241 676
e 241 678
e 241 695
e 241 708
e 241 711
e 241 720
e 241 728
e 241 743
e 241 763
e 241 781
e 241 784
e 241 795
e 241 806
e 241 810
e 241 837
e 241 859
e 241 896
e 241 917
e 241 925
e 241 931
e 241 936
e 241 958
e 241 970
e 241 993
e 241 995
e 242 263
e 242 264
e 242 294
e 242 297
e 242 301
e 242 333
e 242 349
e 242 350
e 242 359
e 242 394
e 242 406
e 242 417
e 242 418
e 242 434
e 242 438
e 242 442
e 242 449
e 242 471
e 242 479
e 242 482
e 242 483
e 242 489
e 242 507
e 242 515
e 242 519
e 242 531
e 242 532
e 242 537
e 242 540
e 242 542
e 242 544
e 242 553
e 242 560
e 242 561
e 242 564
e 242 567
e 242 570
e 242 581
e 242 599
e 242 606
e 242 621
e 242 622
e 242 643
e 242 647
e 242 648
e 242 678
e 242 679
e 242 680
e 242 707
e 242 720
e 242 723
e 242 727
e 242 743
e 242 761
e 242 764
e 242 771
e 242 772
e 242 783
e 242 796
e 242 807
e 242 813
e 242 815
e 242 837
e 242 841
e 242 842
e 242 853
e 242 857
e 242 872
e 242 874
e 242 875
e 242 889
e 242 894
e 242 899
e 242 906
e 242 920
e 242 929
e 242 942
e 242 947
e 242 972
e 242 975
e 242 990
e 242 992
e 243 252
e 243 271
e 243 292
e 243 298
e 243 301
e 243 305
e 243 315
e 243 326
e 243 378
e 243 380
e 243 383
e 243 399
e 243 403
e 243 426
e 243 444
e 243 457
e 243 508
e 243 517
e 243 528
e 243 532
e 243 557
e 243 564
e 243 597
e 243 598
e 243 605
e 243 624
e 243 644
e 243 645
e 243 648
e 243 661
e 243 690
e 243 702
e 243 717
e 243 731
e 243 732
e 243 738
e 243 787
e 243 790
e 243 805
e 243 806
e 243 845
e 243 861
e 243 862
e 243 869
e 243 870
e 243 875
e 243 889
e 243 924
e 243 942
e 243 955
e 243 973
e 243 976
e 243 978
e 243 986
e 243 1000
e 244 255
e 244 258
e 244 280
e 244 298
e 244 302
e 244 343
e 244 356
e 244 371
e 244 372
e 244 395
e 244 399
e 244 411
e 244 418
e 244 430
e 244 435
e 244 449
e 244 458
e 244 474
e 244 486
e 244 494
e 244 515
e 244 530
e 244 536
e 244 539
e 244 547
e 244 557
e 244 558
e 244 561
e 244 584
e 244 614
e 244 625
e 244 633
e 244 642
e 244 649
e 244 651
e 244 668
e 244 674
e 244 678
e 244 687
e 244 693
e 244 707
e 244 709
e 244 760
e 244 763
e 244 803
e 244 814
e 244 844
e 244 849
e 244 855
e 244 861
e 244 876
e 244 880
e 244 892
e 244 894
e 244 895
e 244 898
e 244 923
e 244 935
e 244 940
e 244 944
e 244 947
e 244 949
e 244 958
e 244 960
e 244 963
e 244 977
e 244 993
e 244 996
e 245 251
e 245 262
e 245 274
e 245 276
e 245 278
e 245 292
e 245 293
e 245 294
e 245 296
e 245 302
e 245 321
e 245 341
e 245 367
e 245 370
e 245 374
e 245 395
e 245 398
e 245 408
e 245 411
e 245 420
e 245 435
e 245 439
e 245 458
e 245 462
e 245 471
e 245 473
e 245 484
e 245 486
e 245 506
e 245 554
e 245 555
e 245 568
e 245 584
e 245 587
e 245 594
e 245 609
e 245 617
e 245 621
e 245 622
e 245 628
e 245 644
e 245 656
e 245 659
e 245 665
e 245 673
e 245 688
e 245 700
e 245 736
e 245 746
e 245 747
e 245 755
e 245 802
e 245 807
e 245 818
e 245 830
e 245 892
e 245 911
e 245 913
e 245 931
e 245 935
e 245 941
e 245 953
e 245 954
e 245 961
e 245 981
e 245 986
e 245 999
e 246 274
e 246 292
e 246 334
e 246 342
e 246 379
e 246 382
e 246 391
e 246 402
e 246 403
e 246 440
e 246 452
e 246 457
e 246 458
e 246 461
e 246 468
e 246 480
e 246 483
e 246 486
e 246 505
e 246 514
e 246 522
e 246 529
e 246 533
e 246 555
e 246 558
e 246 565
e 246 569
e 246 580
e 246 589
e 246 608
e 246 643
e 246 649
e 246 651
e 246 659
e 246 668
e 246 673
e 246 681
e 246 692
e 246 696
e 246 698
e 246 710
e 246 717
e 246 731
e 246 738
e 246 752
e 246 762
e 246 778
e 246 796
e 246 813
e 246 815
e 246 816
e 246 825
e 246 841
e 246 858
e 246 865
e 246 869
e 246 896
e 246 897
e 246 898
e 246 912
e 246 925
e 246 927
e 246 943
e 246 951
e 246 957
e 246 958
e 246 988
e 246 1000
e 247 270
e 247 272
e 247 274
e 247 295
e 247 298
e 247 299
e 247 302
e 247 304
e 247 306
e 247 313
e 247 340
e 247 380
e 247 410
e 247 424
e 247 438
e 247 457
e 247 464
e 247 469
e 247 473
e 247 501
e 247 515
e 247 519
e 247 521
e 247 522
e 247 529
e 247 543
e 247 552
e 247 564
e 247 569
e 247 599
e 247 606
e 247 616
e 247 619
e 247 627
e 247 641
e 247 671
e 247 674
e 247 682
e 247 683
e 247 684
e 247 691
e 247 696
e 247 697
e 247 713
e 247 719
e 247 729
e 247 734
e 247 736
e 247 748
e 247 754
e 247 786
e 247 809
e 247 811
e 247 825
e 247 849
e 247 853
e 247 855
e 247 867
e 247 875
e 247 894
e 247 895
e 247 904
e 247 929
e 247 939
e 247 975
e 247 995
e 248 251
e 248 256
e 248 265
e 248 318
e 248 321
e 248 326
e 248 334
e 248 349
e 248 366
e 248 401
e 248 402
e 248 431
e 248 432
e 248 433
e 248 437
e 248 447
e 248 456
e 248 458
e 248 463
e 248 482
e 248 510
e 248 529
e 248 531
e 248 533
e 248 540
e 248 549
e 248 564
e 248 585
e 248 592
e 248 593
e 248 608
e 248 613
e 248 629
e 248 632
e 248 646
e 248 669
e 248 675
e 248 677
e 248 685
e 248 713
e 248 718
e 248 720
e 248 724
e 248 737
e 248 746
e 248 753
e 248 759
e 248 761
e 248 770
e 248 771
e 248 775
e 248 781
e 248 782
e 248 786
e 248 804
e 248 807
e 248 809
e 248 810
e 248 818
e 248 828
e 248 830
e 248 849
e 248 854
e 248 870
e 248 880
e 248 889
e 248 926
e 248 960
e 248 964
e 248 980
e 248 984
e 248 990
e 249 266
e 249 268
e 249 269
e 249 270
e 249 306
e 249 310
e 249 316
e 249 321
e 249 322
e 249 335
e 249 338
e 249 340
e 249 341
e 249 346
e 249 360
e 249 372
e 249 388
e 249 389
e 249 400
e 249 401
e 249 408
e 249 445
e 249 447
e 249 464
e 249 480
e 249 490
e 249 501
e 249 510
e 249 515
e 249 517
e 249 518
e 249 531
e 249 533
e 249 542
e 249 577
e 249 580
e 249 583
e 249 587
e 249 602
e 249 606
e 249 611
e 249 631
e 249 633
e 249 639
e 249 645
e 249 655
e 249 658
e 249 662
e 249 663
e 249 665
e 249 694
e 249 710
e 249 715
e 249 726
e 249 739
e 249 740
e 249 756
e 249 764
e 249 765
e 249 788
e 249 805
e 249 810
e 249 815
e 249 830
e 249 849
e 249 862
e 249 878
e 249 883
e 249 885
e 249 890
e 249 892
e 249 917
e 249 928
e 249 931
e 249 936
e 249 941
e 249 984
e 249 986
e 249 993
e 249 1000
e 250 258
e 250 282
e 250 283
e 250 290
e 250 298
e 250 305
e 250 308
e 250 314
e 250 327
e 250 330
e 250 337
e 250 362
e 250 366
e 250 393
e 250 401
e 250 405
e 250 432
e 250 438
e 250 448
e 250 457
e 250 465
e 250 480
e 250 483
e 250 485
e 250 491
e 250 493
e 250 497
e 250 498
e 250 506
e 250 508
e 250 524
e 250 539
e 250 551
e 250 554
e 250 558
e 250 560
e 250 565
e 250 566
e 250 574
e 250 631
e 250 646
e 250 654
e 250 662
e 250 676
e 250 698
e 250 702
e 250 706
e 250 729
e 250 731
e 250 741
e 250 744
e 250 746
e 250 770
e 250 779
e 250 791
e 250 818
e 250 832
e 250 854
e 250 862
e 250 867
e 250 875
e 250 890
e 250 908
e 250 910
e 250 919
e 250 933
e 250 939
e 250 940
e 250 941
e 250 947
e 250 954
e 250 958
e 250 961
e 250 980
e 250 1000
