p edge 1000 18794
e 1 275
e 1 285
e 1 312
e 1 314
e 1 332
e 1 345
e 1 381
e 1 390
e 1 401
e 1 444
e 1 448
e 1 488
e 1 514
e 1 553
e 1 554
e 1 557
e 1 578
e 1 580
e 1 585
e 1 587
e 1 590
e 1 609
e 1 610
e 1 612
e 1 615
e 1 629
e 1 651
e 1 678
e 1 680
e 1 682
e 1 686
e 1 697
e 1 700
e 1 713
e 1 726
e 1 732
e 1 745
e 1 764
e 1 766
e 1 775
e 1 777
e 1 778
e 1 785
e 1 787
e 1 806
e 1 807
e 1 830
e 1 845
e 1 850
e 1 851
e 1 894
e 1 904
e 1 921
e 1 928
e 1 929
e 1 937
e 1 951
e 1 956
e 1 964
e 1 976
e 1 993
e 1 995
e 1 998
e 2 257
e 2 261
e 2 273
e 2 277
e 2 313
e 2 323
e 2 328
e 2 349
e 2 358
e 2 360
e 2 362
e 2 366
e 2 382
e 2 387
e 2 397
e 2 401
e 2 407
e 2 449
e 2 452
e 2 454
e 2 457
e 2 469
e 2 501
e 2 519
e 2 521
e 2 535
e 2 544
e 2 557
e 2 571
e 2 574
e 2 578
e 2 593
e 2 606
e 2 609
e 2 624
e 2 625
e 2 628
e 2 652
e 2 685
e 2 717
e 2 724
e 2 730
e 2 739
e 2 752
e 2 753
e 2 756
e 2 760
e 2 774
e 2 781
e 2 787
e 2 795
e 2 808
e 2 815
e 2 834
e 2 835
e 2 838
e 2 844
e 2 878
e 2 879
e 2 883
e 2 893
e 2 909
e 2 912
e 2 925
e 2 939
e 2 944
e 2 950
e 2 954
e 2 958
e 2 959
e 2 969
e 2 976
e 2 979
e 2 983
e 2 989
e 2 991
e 2 994
e 2 998
e 3 254
e 3 260
e 3 281
e 3 283
e 3 289
e 3 296
e 3 302
e 3 306
e 3 324
e 3 351
e 3 357
e 3 359
e 3 363
e 3 375
e 3 380
e 3 384
e 3 407
e 3 410
e 3 411
e 3 414
e 3 415
e 3 419
e 3 426
e 3 427
e 3 438
e 3 461
e 3 465
e 3 466
e 3 474
e 3 476
e 3 510
e 3 514
e 3 536
e 3 537
e 3 546
e 3 557
e 3 564
e 3 573
e 3 580
e 3 592
e 3 596
e 3 597
e 3 598
e 3 608
e 3 630
e 3 633
e 3 637
e 3 643
e 3 651
e 3 682
e 3 684
e 3 688
e 3 704
e 3 713
e 3 731
e 3 739
e 3 748
e 3 754
e 3 756
e 3 760
e 3 761
e 3 765
e 3 788
e 3 792
e 3 804
e 3 806
e 3 808
e 3 814
e 3 839
e 3 845
e 3 851
e 3 857
e 3 858
e 3 875
e 3 876
e 3 880
e 3 890
e 3 894
e 3 899
e 3 902
e 3 906
e 3 920
e 3 944
e 3 957
e 3 983
e 3 992
e 4 252
e 4 255
e 4 268
e 4 294
e 4 297
e 4 304
e 4 322
e 4 327
e 4 332
e 4 342
e 4 361
e 4 370
e 4 384
e 4 393
e 4 401
e 4 421
e 4 432
e 4 437
e 4 464
e 4 471
e 4 480
e 4 507
e 4 508
e 4 550
e 4 555
e 4 556
e 4 582
e 4 583
e 4 585
e 4 596
e 4 600
e 4 609
e 4 612
e 4 624
e 4 628
e 4 630
e 4 642
e 4 645
e 4 695
e 4 712
e 4 730
e 4 733
e 4 743
e 4 746
e 4 747
e 4 754
e 4 758
e 4 761
e 4 772
e 4 776
e 4 783
e 4 795
e 4 796
e 4 798
e 4 818
e 4 827
e 4 829
e 4 830
e 4 833
e 4 842
e 4 874
e 4 892
e 4 922
e 4 936
e 4 940
e 4 970
e 4 976
e 4 991
e 4 1000
e 5 258
e 5 279
e 5 280
e 5 283
e 5 285
e 5 299
e 5 310
e 5 313
e 5 320
e 5 324
e 5 335
e 5 336
e 5 348
e 5 349
e 5 355
e 5 359
e 5 369
e 5 370
e 5 386
e 5 414
e 5 418
e 5 427
e 5 435
e 5 438
e 5 443
e 5 454
e 5 466
e 5 474
e 5 481
e 5 493
e 5 509
e 5 522
e 5 547
e 5 548
e 5 562
e 5 597
e 5 630
e 5 637
e 5 642
e 5 653
e 5 659
e 5 660
e 5 674
e 5 675
e 5 676
e 5 682
e 5 691
e 5 713
e 5 719
e 5 736
e 5 744
e 5 749
e 5 758
e 5 761
e 5 778
e 5 786
e 5 795
e 5 802
e 5 813
e 5 822
e 5 830
e 5 842
e 5 848
e 5 857
e 5 858
e 5 876
e 5 899
e 5 905
e 5 918
e 5 929
e 5 933
e 5 942
e 5 965
e 5 968
e 5 970
e 5 986
e 5 988
e 5 989
e 6 259
e 6 270
e 6 272
e 6 277
e 6 281
e 6 302
e 6 309
e 6 314
e 6 317
e 6 324
e 6 330
e 6 352
e 6 369
e 6 379
e 6 381
e 6 385
e 6 386
e 6 407
e 6 448
e 6 450
e 6 469
e 6 495
e 6 510
e 6 516
e 6 520
e 6 527
e 6 528
e 6 545
e 6 554
e 6 558
e 6 577
e 6 578
e 6 581
e 6 586
e 6 589
e 6 592
e 6 594
e 6 606
e 6 613
e 6 616
e 6 643
e 6 646
e 6 677
e 6 700
e 6 713
e 6 743
e 6 755
e 6 756
e 6 760
e 6 762
e 6 763
e 6 787
e 6 791
e 6 799
e 6 808
e 6 821
e 6 832
e 6 833
e 6 838
e 6 864
e 6 865
e 6 874
e 6 888
e 6 895
e 6 903
e 6 936
e 6 939
e 6 944
e 6 957
e 6 986
e 6 988
e 6 996
e 6 998
e 7 257
e 7 275
e 7 296
e 7 305
e 7 334
e 7 338
e 7 348
e 7 374
e 7 383
e 7 385
e 7 416
e 7 433
e 7 436
e 7 437
e 7 449
e 7 452
e 7 468
e 7 473
e 7 505
e 7 540
e 7 551
e 7 622
e 7 627
e 7 633
e 7 645
e 7 647
e 7 650
e 7 654
e 7 674
e 7 675
e 7 677
e 7 680
e 7 683
e 7 694
e 7 702
e 7 705
e 7 710
e 7 733
e 7 775
e 7 777
e 7 788
e 7 792
e 7 793
e 7 812
e 7 816
e 7 828
e 7 831
e 7 832
e 7 835
e 7 855
e 7 867
e 7 874
e 7 881
e 7 882
e 7 886
e 7 908
e 7 954
e 7 972
e 7 973
e 7 976
e 7 980
e 7 984
e 8 253
e 8 261
e 8 274
e 8 285
e 8 300
e 8 306
e 8 307
e 8 317
e 8 325
e 8 339
e 8 349
e 8 350
e 8 351
e 8 389
e 8 390
e 8 394
e 8 431
e 8 470
e 8 496
e 8 530
e 8 553
e 8 563
e 8 570
e 8 577
e 8 585
e 8 587
e 8 589
e 8 605
e 8 613
e 8 639
e 8 642
e 8 644
e 8 657
e 8 668
e 8 678
e 8 695
e 8 697
e 8 701
e 8 726
e 8 738
e 8 750
e 8 776
e 8 778
e 8 780
e 8 783
e 8 811
e 8 879
e 8 882
e 8 892
e 8 893
e 8 898
e 8 903
e 8 908
e 8 925
e 8 933
e 8 942
e 8 952
e 8 954
e 9 274
e 9 278
e 9 280
e 9 301
e 9 305
e 9 321
e 9 325
e 9 326
e 9 332
e 9 337
e 9 355
e 9 370
e 9 389
e 9 397
e 9 399
e 9 403
e 9 406
e 9 417
e 9 435
e 9 441
e 9 443
e 9 446
e 9 460
e 9 472
e 9 481
e 9 484
e 9 488
e 9 497
e 9 498
e 9 511
e 9 512
e 9 513
e 9 528
e 9 535
e 9 562
e 9 582
e 9 588
e 9 613
e 9 628
e 9 629
e 9 634
e 9 641
e 9 662
e 9 677
e 9 679
e 9 681
e 9 683
e 9 723
e 9 729
e 9 742
e 9 757
e 9 782
e 9 784
e 9 785
e 9 809
e 9 813
e 9 819
e 9 821
e 9 833
e 9 836
e 9 859
e 9 866
e 9 897
e 9 905
e 9 914
e 9 915
e 9 916
e 9 936
e 9 939
e 9 942
e 9 964
e 9 967
e 9 968
e 9 980
e 9 981
e 9 992
e 9 998
e 9 999
e 10 253
e 10 270
e 10 283
e 10 291
e 10 294
e 10 323
e 10 329
e 10 336
e 10 359
e 10 362
e 10 376
e 10 383
e 10 388
e 10 439
e 10 440
e 10 449
e 10 452
e 10 456
e 10 458
e 10 463
e 10 466
e 10 473
e 10 487
e 10 498
e 10 507
e 10 509
e 10 545
e 10 575
e 10 577
e 10 581
e 10 582
e 10 587
e 10 641
e 10 658
e 10 673
e 10 674
e 10 679
e 10 684
e 10 690
e 10 695
e 10 696
e 10 697
e 10 703
e 10 704
e 10 708
e 10 714
e 10 728
e 10 733
e 10 737
e 10 739
e 10 747
e 10 751
e 10 758
e 10 768
e 10 778
e 10 786
e 10 802
e 10 820
e 10 831
e 10 847
e 10 851
e 10 868
e 10 869
e 10 874
e 10 881
e 10 884
e 10 899
e 10 918
e 10 924
e 10 932
e 10 944
e 10 950
e 10 954
e 10 959
e 10 962
e 10 980
e 11 256
e 11 260
e 11 265
e 11 289
e 11 290
e 11 294
e 11 296
e 11 297
e 11 309
e 11 314
e 11 321
e 11 325
e 11 348
e 11 363
e 11 374
e 11 376
e 11 401
e 11 404
e 11 417
e 11 420
e 11 430
e 11 431
e 11 432
e 11 439
e 11 458
e 11 460
e 11 462
e 11 465
e 11 470
e 11 472
e 11 491
e 11 501
e 11 507
e 11 524
e 11 537
e 11 541
e 11 552
e 11 561
e 11 568
e 11 570
e 11 574
e 11 588
e 11 590
e 11 593
e 11 596
e 11 599
e 11 604
e 11 608
e 11 610
e 11 611
e 11 612
e 11 614
e 11 638
e 11 650
e 11 663
e 11 675
e 11 676
e 11 683
e 11 692
e 11 695
e 11 711
e 11 713
e 11 716
e 11 732
e 11 742
e 11 745
e 11 757
e 11 765
e 11 801
e 11 810
e 11 821
e 11 860
e 11 878
e 11 890
e 11 895
e 11 904
e 11 905
e 11 910
e 11 920
e 11 943
e 11 956
e 11 969
e 11 986
e 12 260
e 12 272
e 12 300
e 12 303
e 12 312
e 12 317
e 12 336
e 12 340
e 12 343
e 12 348
e 12 373
e 12 385
e 12 394
e 12 406
e 12 412
e 12 419
e 12 421
e 12 425
e 12 440
e 12 471
e 12 512
e 12 517
e 12 533
e 12 535
e 12 536
e 12 544
e 12 557
e 12 568
e 12 583
e 12 587
e 12 594
e 12 602
e 12 606
e 12 607
e 12 614
e 12 620
e 12 622
e 12 625
e 12 643
e 12 648
e 12 662
e 12 667
e 12 675
e 12 677
e 12 688
e 12 691
e 12 711
e 12 719
e 12 720
e 12 721
e 12 733
e 12 737
e 12 749
e 12 762
e 12 766
e 12 787
e 12 830
e 12 839
e 12 844
e 12 854
e 12 858
e 12 871
e 12 874
e 12 902
e 12 911
e 12 946
e 12 950
e 12 962
e 13 279
e 13 307
e 13 320
e 13 325
e 13 330
e 13 348
e 13 350
e 13 364
e 13 382
e 13 386
e 13 397
e 13 398
e 13 399
e 13 410
e 13 424
e 13 431
e 13 446
e 13 448
e 13 458
e 13 467
e 13 473
e 13 483
e 13 491
e 13 523
e 13 527
e 13 530
e 13 531
e 13 542
e 13 563
e 13 570
e 13 574
e 13 583
e 13 588
e 13 591
e 13 592
e 13 608
e 13 628
e 13 629
e 13 636
e 13 642
e 13 647
e 13 650
e 13 679
e 13 711
e 13 723
e 13 757
e 13 760
e 13 767
e 13 775
e 13 786
e 13 819
e 13 839
e 13 840
e 13 857
e 13 867
e 13 870
e 13 874
e 13 884
e 13 885
e 13 886
e 13 913
e 13 919
e 13 929
e 13 938
e 13 954
e 13 957
e 13 961
e 13 978
e 13 986
e 13 995
e 13 1000
e 14 257
e 14 267
e 14 289
e 14 297
e 14 299
e 14 301
e 14 303
e 14 309
e 14 314
e 14 332
e 14 334
e 14 342
e 14 343
e 14 345
e 14 368
e 14 370
e 14 373
e 14 379
e 14 380
e 14 404
e 14 405
e 14 407
e 14 408
e 14 422
e 14 425
e 14 452
e 14 460
e 14 466
e 14 468
e 14 469
e 14 475
e 14 483
e 14 492
e 14 494
e 14 512
e 14 514
e 14 515
e 14 516
e 14 519
e 14 529
e 14 548
e 14 549
e 14 560
e 14 568
e 14 569
e 14 571
e 14 582
e 14 602
e 14 608
e 14 618
e 14 621
e 14 646
e 14 663
e 14 682
e 14 688
e 14 693
e 14 710
e 14 715
e 14 757
e 14 777
e 14 782
e 14 797
e 14 803
e 14 807
e 14 822
e 14 826
e 14 831
e 14 839
e 14 840
e 14 853
e 14 866
e 14 877
e 14 918
e 14 921
e 14 926
e 14 927
e 14 943
e 14 976
e 14 981
e 14 994
e 14 1000
e 15 266
e 15 283
e 15 299
e 15 309
e 15 319
e 15 325
e 15 382
e 15 391
e 15 415
e 15 423
e 15 429
e 15 437
e 15 438
e 15 441
e 15 449
e 15 450
e 15 461
e 15 469
e 15 470
e 15 476
e 15 477
e 15 487
e 15 531
e 15 538
e 15 545
e 15 554
e 15 556
e 15 587
e 15 595
e 15 596
e 15 610
e 15 612
e 15 615
e 15 627
e 15 633
e 15 639
e 15 651
e 15 668
e 15 685
e 15 691
e 15 705
e 15 706
e 15 714
e 15 726
e 15 732
e 15 744
e 15 760
e 15 761
e 15 766
e 15 771
e 15 809
e 15 813
e 15 815
e 15 817
e 15 827
e 15 840
e 15 841
e 15 862
e 15 893
e 15 915
e 15 920
e 15 925
e 15 929
e 15 941
e 15 950
e 15 978
e 15 987
e 15 991
e 15 992
e 15 999
e 16 254
e 16 271
e 16 287
e 16 291
e 16 296
e 16 300
e 16 301
e 16 304
e 16 324
e 16 337
e 16 352
e 16 360
e 16 403
e 16 405
e 16 411
e 16 419
e 16 430
e 16 435
e 16 441
e 16 475
e 16 478
e 16 500
e 16 512
e 16 514
e 16 517
e 16 526
e 16 542
e 16 547
e 16 548
e 16 557
e 16 568
e 16 581
e 16 601
e 16 602
e 16 609
e 16 618
e 16 623
e 16 634
e 16 636
e 16 658
e 16 663
e 16 666
e 16 668
e 16 671
e 16 682
e 16 684
e 16 692
e 16 694
e 16 708
e 16 713
e 16 720
e 16 748
e 16 752
e 16 753
e 16 763
e 16 764
e 16 775
e 16 791
e 16 817
e 16 822
e 16 825
e 16 826
e 16 842
e 16 855
e 16 864
e 16 868
e 16 877
e 16 896
e 16 906
e 16 918
e 16 931
e 16 936
e 16 955
e 16 961
e 16 978
e 17 254
e 17 273
e 17 292
e 17 294
e 17 306
e 17 321
e 17 324
e 17 331
e 17 335
e 17 343
e 17 344
e 17 402
e 17 411
e 17 432
e 17 439
e 17 440
e 17 458
e 17 485
e 17 488
e 17 495
e 17 504
e 17 508
e 17 509
e 17 514
e 17 530
e 17 548
e 17 566
e 17 576
e 17 579
e 17 626
e 17 656
e 17 659
e 17 662
e 17 668
e 17 670
e 17 679
e 17 695
e 17 704
e 17 705
e 17 715
e 17 730
e 17 765
e 17 768
e 17 777
e 17 788
e 17 795
e 17 803
e 17 811
e 17 825
e 17 830
e 17 834
e 17 844
e 17 845
e 17 869
e 17 871
e 17 888
e 17 900
e 17 918
e 17 948
e 17 965
e 17 986
e 17 996
e 17 1000
e 18 251
e 18 264
e 18 269
e 18 330
e 18 352
e 18 356
e 18 367
e 18 373
e 18 380
e 18 389
e 18 393
e 18 401
e 18 413
e 18 421
e 18 462
e 18 511
e 18 514
e 18 521
e 18 540
e 18 557
e 18 567
e 18 568
e 18 569
e 18 571
e 18 585
e 18 588
e 18 596
e 18 603
e 18 624
e 18 631
e 18 638
e 18 640
e 18 645
e 18 654
e 18 655
e 18 659
e 18 670
e 18 676
e 18 677
e 18 693
e 18 703
e 18 704
e 18 731
e 18 739
e 18 756
e 18 782
e 18 793
e 18 800
e 18 803
e 18 816
e 18 832
e 18 835
e 18 836
e 18 839
e 18 846
e 18 847
e 18 850
e 18 864
e 18 869
e 18 883
e 18 905
e 18 909
e 18 912
e 18 939
e 18 945
e 18 952
e 18 965
e 18 974
e 19 252
e 19 253
e 19 270
e 19 272
e 19 282
e 19 320
e 19 322
e 19 324
e 19 329
e 19 340
e 19 342
e 19 367
e 19 379
e 19 392
e 19 401
e 19 403
e 19 410
e 19 430
e 19 433
e 19 434
e 19 439
e 19 441
e 19 444
e 19 446
e 19 457
e 19 460
e 19 463
e 19 468
e 19 482
e 19 499
e 19 500
e 19 505
e 19 517
e 19 530
e 19 532
e 19 565
e 19 568
e 19 573
e 19 582
e 19 596
e 19 600
e 19 607
e 19 617
e 19 623
e 19 626
e 19 640
e 19 649
e 19 652
e 19 665
e 19 677
e 19 696
e 19 716
e 19 731
e 19 770
e 19 771
e 19 772
e 19 777
e 19 789
e 19 793
e 19 794
e 19 804
e 19 807
e 19 809
e 19 815
e 19 817
e 19 818
e 19 828
e 19 852
e 19 856
e 19 859
e 19 868
e 19 872
e 19 879
e 19 907
e 19 916
e 19 940
e 19 983
e 19 991
e 20 263
e 20 276
e 20 279
e 20 280
e 20 319
e 20 320
e 20 330
e 20 347
e 20 357
e 20 358
e 20 368
e 20 373
e 20 380
e 20 393
e 20 404
e 20 414
e 20 427
e 20 443
e 20 449
e 20 452
e 20 454
e 20 473
e 20 476
e 20 499
e 20 500
e 20 515
e 20 517
e 20 531
e 20 535
e 20 536
e 20 541
e 20 575
e 20 576
e 20 578
e 20 581
e 20 591
e 20 596
e 20 601
e 20 603
e 20 610
e 20 615
e 20 625
e 20 641
e 20 642
e 20 653
e 20 656
e 20 658
e 20 662
e 20 683
e 20 686
e 20 689
e 20 693
e 20 706
e 20 730
e 20 740
e 20 751
e 20 764
e 20 778
e 20 781
e 20 791
e 20 807
e 20 818
e 20 840
e 20 847
e 20 852
e 20 855
e 20 869
e 20 890
e 20 894
e 20 895
e 20 917
e 20 919
e 20 921
e 20 925
e 20 932
e 20 944
e 20 952
e 20 964
e 20 968
e 20 969
e 20 983
e 21 254
e 21 259
e 21 270
e 21 296
e 21 308
e 21 313
e 21 319
e 21 337
e 21 360
e 21 364
e 21 368
e 21 382
e 21 393
e 21 396
e 21 408
e 21 411
e 21 417
e 21 429
e 21 435
e 21 440
e 21 442
e 21 444
e 21 447
e 21 474
e 21 480
e 21 497
e 21 519
e 21 548
e 21 556
e 21 561
e 21 565
e 21 569
e 21 574
e 21 605
e 21 609
e 21 629
e 21 634
e 21 644
e 21 649
e 21 655
e 21 659
e 21 673
e 21 687
e 21 715
e 21 717
e 21 737
e 21 774
e 21 811
e 21 814
e 21 830
e 21 846
e 21 850
e 21 861
e 21 865
e 21 867
e 21 876
e 21 888
e 21 890
e 21 897
e 21 900
e 21 910
e 21 916
e 21 935
e 21 939
e 21 941
e 21 944
e 21 948
e 21 950
e 21 969
e 21 970
e 21 975
e 21 978
e 21 991
e 21 999
e 21 1000
e 22 251
e 22 264
e 22 281
e 22 298
e 22 303
e 22 304
e 22 305
e 22 307
e 22 310
e 22 312
e 22 317
e 22 319
e 22 321
e 22 322
e 22 330
e 22 338
e 22 343
e 22 351
e 22 356
e 22 359
e 22 365
e 22 370
e 22 375
e 22 378
e 22 382
e 22 391
e 22 395
e 22 400
e 22 405
e 22 408
e 22 421
e 22 427
e 22 429
e 22 430
e 22 436
e 22 438
e 22 442
e 22 450
e 22 458
e 22 464
e 22 486
e 22 495
e 22 507
e 22 511
e 22 518
e 22 520
e 22 545
e 22 550
e 22 561
e 22 578
e 22 586
e 22 594
e 22 604
e 22 605
e 22 612
e 22 614
e 22 632
e 22 640
e 22 648
e 22 676
e 22 695
e 22 703
e 22 714
e 22 728
e 22 772
e 22 778
e 22 788
e 22 798
e 22 813
e 22 818
e 22 819
e 22 831
e 22 840
e 22 850
e 22 873
e 22 884
e 22 888
e 22 899
e 22 911
e 22 922
e 22 925
e 22 928
e 22 945
e 22 946
e 22 947
e 22 951
e 22 989
e 22 993
e 23 251
e 23 257
e 23 262
e 23 263
e 23 265
e 23 285
e 23 286
e 23 292
e 23 301
e 23 305
e 23 307
e 23 323
e 23 329
e 23 337
e 23 345
e 23 358
e 23 359
e 23 363
e 23 368
e 23 375
e 23 377
e 23 383
e 23 404
e 23 406
e 23 411
e 23 416
e 23 420
e 23 435
e 23 445
e 23 451
e 23 452
e 23 455
e 23 474
e 23 476
e 23 492
e 23 496
e 23 514
e 23 518
e 23 537
e 23 548
e 23 572
e 23 586
e 23 609
e 23 613
e 23 618
e 23 619
e 23 629
e 23 631
e 23 637
e 23 647
e 23 653
e 23 659
e 23 688
e 23 695
e 23 697
e 23 732
e 23 733
e 23 735
e 23 738
e 23 787
e 23 812
e 23 823
e 23 828
e 23 831
e 23 856
e 23 863
e 23 864
e 23 873
e 23 909
e 23 933
e 23 936
e 23 942
e 23 962
e 23 973
e 23 976
e 23 991
e 23 996
e 24 277
e 24 282
e 24 315
e 24 316
e 24 320
e 24 338
e 24 342
e 24 345
e 24 372
e 24 377
e 24 384
e 24 412
e 24 418
e 24 419
e 24 420
e 24 422
e 24 432
e 24 435
e 24 451
e 24 456
e 24 484
e 24 492
e 24 519
e 24 522
e 24 523
e 24 530
e 24 537
e 24 556
e 24 565
e 24 566
e 24 589
e 24 596
e 24 603
e 24 622
e 24 623
e 24 624
e 24 647
e 24 654
e 24 661
e 24 663
e 24 670
e 24 673
e 24 709
e 24 715
e 24 737
e 24 740
e 24 771
e 24 776
e 24 779
e 24 780
e 24 784
e 24 790
e 24 791
e 24 794
e 24 809
e 24 831
e 24 842
e 24 845
e 24 853
e 24 865
e 24 868
e 24 885
e 24 909
e 24 913
e 24 939
e 24 940
e 24 950
e 24 956
e 24 987
e 24 1000
e 25 266
e 25 273
e 25 277
e 25 281
e 25 303
e 25 308
e 25 311
e 25 317
e 25 323
e 25 325
e 25 332
e 25 335
e 25 344
e 25 355
e 25 383
e 25 392
e 25 393
e 25 397
e 25 402
e 25 410
e 25 424
e 25 436
e 25 442
e 25 452
e 25 462
e 25 464
e 25 477
e 25 481
e 25 487
e 25 516
e 25 520
e 25 535
e 25 544
e 25 560
e 25 568
e 25 571
e 25 572
e 25 591
e 25 617
e 25 626
e 25 631
e 25 632
e 25 637
e 25 656
e 25 669
e 25 676
e 25 697
e 25 715
e 25 719
e 25 736
e 25 738
e 25 742
e 25 758
e 25 759
e 25 761
e 25 762
e 25 768
e 25 770
e 25 774
e 25 788
e 25 789
e 25 794
e 25 796
e 25 825
e 25 831
e 25 832
e 25 847
e 25 858
e 25 866
e 25 879
e 25 881
e 25 905
e 25 907
e 25 940
e 25 961
e 25 987
e 25 998
e 26 251
e 26 252
e 26 259
e 26 273
e 26 274
e 26 276
e 26 279
e 26 288
e 26 291
e 26 304
e 26 322
e 26 323
e 26 330
e 26 335
e 26 338
e 26 342
e 26 359
e 26 361
e 26 378
e 26 383
e 26 393
e 26 410
e 26 420
e 26 425
e 26 429
e 26 440
e 26 445
e 26 448
e 26 462
e 26 465
e 26 473
e 26 539
e 26 558
e 26 565
e 26 573
e 26 574
e 26 575
e 26 576
e 26 581
e 26 586
e 26 591
e 26 622
e 26 634
e 26 646
e 26 647
e 26 656
e 26 661
e 26 679
e 26 691
e 26 692
e 26 729
e 26 749
e 26 759
e 26 766
e 26 788
e 26 793
e 26 795
e 26 822
e 26 828
e 26 837
e 26 847
e 26 850
e 26 856
e 26 865
e 26 881
e 26 911
e 26 924
e 26 925
e 26 928
e 26 932
e 26 946
e 26 949
e 26 953
e 26 967
e 27 266
e 27 280
e 27 292
e 27 296
e 27 306
e 27 317
e 27 323
e 27 333
e 27 335
e 27 368
e 27 385
e 27 393
e 27 396
e 27 402
e 27 414
e 27 420
e 27 423
e 27 432
e 27 441
e 27 471
e 27 472
e 27 474
e 27 478
e 27 482
e 27 485
e 27 495
e 27 502
e 27 508
e 27 543
e 27 548
e 27 552
e 27 560
e 27 587
e 27 591
e 27 598
e 27 621
e 27 625
e 27 634
e 27 636
e 27 651
e 27 680
e 27 682
e 27 686
e 27 689
e 27 703
e 27 704
e 27 714
e 27 717
e 27 718
e 27 722
e 27 723
e 27 727
e 27 736
e 27 745
e 27 762
e 27 774
e 27 782
e 27 794
e 27 805
e 27 809
e 27 815
e 27 836
e 27 846
e 27 848
e 27 867
e 27 869
e 27 871
e 27 883
e 27 901
e 27 922
e 27 942
e 27 946
e 27 953
e 27 958
e 28 255
e 28 282
e 28 301
e 28 333
e 28 368
e 28 376
e 28 381
e 28 384
e 28 408
e 28 417
e 28 419
e 28 424
e 28 442
e 28 454
e 28 485
e 28 488
e 28 492
e 28 494
e 28 496
e 28 503
e 28 505
e 28 514
e 28 522
e 28 549
e 28 568
e 28 589
e 28 601
e 28 606
e 28 611
e 28 615
e 28 630
e 28 634
e 28 644
e 28 660
e 28 661
e 28 676
e 28 678
e 28 691
e 28 699
e 28 702
e 28 711
e 28 713
e 28 731
e 28 748
e 28 750
e 28 755
e 28 760
e 28 785
e 28 810
e 28 812
e 28 816
e 28 841
e 28 856
e 28 874
e 28 878
e 28 883
e 28 903
e 28 906
e 28 916
e 28 926
e 28 928
e 28 934
e 28 942
e 28 958
e 28 965
e 28 997
e 28 1000
e 29 261
e 29 268
e 29 271
e 29 279
e 29 291
e 29 297
e 29 303
e 29 307
e 29 314
e 29 319
e 29 326
e 29 327
e 29 332
e 29 349
e 29 352
e 29 360
e 29 385
e 29 387
e 29 396
e 29 403
e 29 415
e 29 422
e 29 437
e 29 438
e 29 446
e 29 464
e 29 471
e 29 479
e 29 485
e 29 486
e 29 496
e 29 498
e 29 502
e 29 523
e 29 524
e 29 533
e 29 535
e 29 538
e 29 543
e 29 560
e 29 565
e 29 577
e 29 606
e 29 617
e 29 621
e 29 641
e 29 650
e 29 662
e 29 663
e 29 680
e 29 681
e 29 693
e 29 696
e 29 702
e 29 704
e 29 716
e 29 717
e 29 718
e 29 732
e 29 748
e 29 751
e 29 758
e 29 781
e 29 782
e 29 788
e 29 800
e 29 810
e 29 825
e 29 839
e 29 885
e 29 917
e 29 926
e 29 928
e 29 936
e 29 974
e 29 990
e 29 992
e 30 251
e 30 265
e 30 293
e 30 294
e 30 312
e 30 328
e 30 347
e 30 352
e 30 355
e 30 370
e 30 377
e 30 379
e 30 392
e 30 412
e 30 422
e 30 441
e 30 444
e 30 471
e 30 486
e 30 507
e 30 525
e 30 534
e 30 552
e 30 572
e 30 580
e 30 598
e 30 615
e 30 620
e 30 635
e 30 640
e 30 654
e 30 660
e 30 673
e 30 675
e 30 680
e 30 695
e 30 697
e 30 699
e 30 709
e 30 711
e 30 722
e 30 729
e 30 731
e 30 740
e 30 753
e 30 760
e 30 769
e 30 777
e 30 805
e 30 816
e 30 818
e 30 832
e 30 839
e 30 841
e 30 842
e 30 843
e 30 846
e 30 852
e 30 857
e 30 884
e 30 893
e 30 898
e 30 902
e 30 905
e 30 914
e 30 916
e 30 919
e 30 951
e 30 953
e 30 959
e 30 980
e 31 252
e 31 256
e 31 258
e 31 277
e 31 279
e 31 285
e 31 309
e 31 318
e 31 321
e 31 336
e 31 338
e 31 365
e 31 385
e 31 388
e 31 395
e 31 416
e 31 420
e 31 432
e 31 458
e 31 476
e 31 477
e 31 487
e 31 503
e 31 508
e 31 512
e 31 515
e 31 576
e 31 588
e 31 603
e 31 605
e 31 610
e 31 612
e 31 626
e 31 631
e 31 654
e 31 657
e 31 680
e 31 689
e 31 721
e 31 760
e 31 762
e 31 769
e 31 770
e 31 785
e 31 786
e 31 793
e 31 808
e 31 816
e 31 859
e 31 867
e 31 878
e 31 890
e 31 891
e 31 894
e 31 898
e 31 913
e 31 914
e 31 926
e 31 929
e 31 938
e 31 939
e 31 961
e 31 963
e 31 966
e 31 970
e 31 972
e 31 985
e 31 1000
e 32 253
e 32 260
e 32 261
e 32 263
e 32 275
e 32 288
e 32 295
e 32 297
e 32 300
e 32 302
e 32 309
e 32 312
e 32 329
e 32 336
e 32 350
e 32 360
e 32 398
e 32 413
e 32 423
e 32 427
e 32 449
e 32 458
e 32 467
e 32 489
e 32 491
e 32 494
e 32 508
e 32 510
e 32 514
e 32 519
e 32 521
e 32 541
e 32 552
e 32 597
e 32 611
e 32 624
e 32 627
e 32 637
e 32 639
e 32 670
e 32 678
e 32 690
e 32 698
e 32 704
e 32 713
e 32 715
e 32 716
e 32 719
e 32 726
e 32 731
e 32 735
e 32 737
e 32 753
e 32 762
e 32 764
e 32 768
e 32 783
e 32 785
e 32 790
e 32 799
e 32 803
e 32 805
e 32 816
e 32 837
e 32 886
e 32 903
e 32 904
e 32 906
e 32 931
e 32 949
e 32 970
e 32 982
e 32 986
e 33 258
e 33 263
e 33 265
e 33 272
e 33 279
e 33 295
e 33 302
e 33 330
e 33 334
e 33 337
e 33 356
e 33 377
e 33 384
e 33 390
e 33 393
e 33 407
e 33 412
e 33 417
e 33 423
e 33 431
e 33 435
e 33 451
e 33 455
e 33 506
e 33 513
e 33 517
e 33 537
e 33 545
e 33 549
e 33 556
e 33 599
e 33 606
e 33 629
e 33 639
e 33 644
e 33 663
e 33 665
e 33 680
e 33 686
e 33 695
e 33 714
e 33 720
e 33 728
e 33 730
e 33 739
e 33 745
e 33 755
e 33 768
e 33 778
e 33 794
e 33 797
e 33 815
e 33 820
e 33 835
e 33 837
e 33 844
e 33 855
e 33 865
e 33 868
e 33 886
e 33 892
e 33 894
e 33 901
e 33 910
e 33 919
e 33 924
e 33 937
e 33 947
e 33 948
e 33 949
e 33 950
e 33 974
e 33 982
e 34 258
e 34 261
e 34 265
e 34 271
e 34 274
e 34 275
e 34 299
e 34 308
e 34 316
e 34 337
e 34 339
e 34 352
e 34 355
e 34 372
e 34 382
e 34 387
e 34 392
e 34 407
e 34 411
e 34 438
e 34 447
e 34 470
e 34 475
e 34 483
e 34 534
e 34 540
e 34 549
e 34 557
e 34 566
e 34 569
e 34 575
e 34 576
e 34 587
e 34 589
e 34 598
e 34 612
e 34 619
e 34 627
e 34 654
e 34 666
e 34 680
e 34 695
e 34 702
e 34 705
e 34 717
e 34 731
e 34 732
e 34 751
e 34 754
e 34 757
e 34 772
e 34 774
e 34 805
e 34 826
e 34 830
e 34 844
e 34 855
e 34 857
e 34 863
e 34 869
e 34 876
e 34 885
e 34 892
e 34 899
e 34 904
e 34 908
e 34 909
e 34 923
e 34 929
e 34 946
e 34 948
e 34 952
e 34 955
e 34 962
e 34 974
e 34 983
e 35 264
e 35 267
e 35 272
e 35 275
e 35 277
e 35 286
e 35 296
e 35 319
e 35 323
e 35 326
e 35 332
e 35 338
e 35 346
e 35 350
e 35 351
e 35 353
e 35 362
e 35 367
e 35 374
e 35 375
e 35 379
e 35 407
e 35 417
e 35 419
e 35 425
e 35 432
e 35 449
e 35 459
e 35 470
e 35 475
e 35 491
e 35 493
e 35 497
e 35 500
e 35 502
e 35 513
e 35 532
e 35 535
e 35 538
e 35 540
e 35 556
e 35 563
e 35 565
e 35 566
e 35 571
e 35 572
e 35 584
e 35 604
e 35 623
e 35 624
e 35 625
e 35 647
e 35 657
e 35 698
e 35 705
e 35 710
e 35 740
e 35 745
e 35 748
e 35 751
e 35 752
e 35 807
e 35 808
e 35 816
e 35 841
e 35 842
e 35 855
e 35 860
e 35 873
e 35 876
e 35 884
e 35 897
e 35 915
e 35 917
e 35 922
e 35 928
e 35 931
e 35 932
e 35 933
e 35 935
e 35 936
e 35 942
e 35 978
e 36 273
e 36 303
e 36 327
e 36 333
e 36 334
e 36 336
e 36 344
e 36 348
e 36 349
e 36 382
e 36 385
e 36 392
e 36 394
e 36 399
e 36 400
e 36 402
e 36 403
e 36 404
e 36 424
e 36 442
e 36 448
e 36 464
e 36 465
e 36 490
e 36 506
e 36 513
e 36 528
e 36 546
e 36 554
e 36 568
e 36 579
e 36 580
e 36 582
e 36 594
e 36 595
e 36 604
e 36 611
e 36 615
e 36 619
e 36 627
e 36 637
e 36 644
e 36 647
e 36 687
e 36 705
e 36 708
e 36 721
e 36 732
e 36 754
e 36 755
e 36 757
e 36 783
e 36 784
e 36 794
e 36 801
e 36 807
e 36 812
e 36 817
e 36 821
e 36 841
e 36 845
e 36 856
e 36 890
e 36 913
e 36 918
e 36 919
e 36 926
e 36 937
e 36 942
e 36 946
e 36 962
e 36 982
e 36 993
e 37 273
e 37 279
e 37 289
e 37 293
e 37 297
e 37 319
e 37 324
e 37 335
e 37 347
e 37 349
e 37 351
e 37 363
e 37 373
e 37 384
e 37 402
e 37 404
e 37 407
e 37 425
e 37 445
e 37 448
e 37 450
e 37 455
e 37 467
e 37 479
e 37 501
e 37 504
e 37 505
e 37 506
e 37 518
e 37 529
e 37 573
e 37 595
e 37 609
e 37 610
e 37 616
e 37 623
e 37 637
e 37 640
e 37 643
e 37 660
e 37 670
e 37 678
e 37 686
e 37 699
e 37 700
e 37 702
e 37 710
e 37 711
e 37 725
e 37 739
e 37 754
e 37 760
e 37 763
e 37 775
e 37 792
e 37 801
e 37 808
e 37 820
e 37 823
e 37 858
e 37 871
e 37 899
e 37 914
e 37 928
e 37 931
e 37 932
e 37 935
e 37 941
e 37 946
e 37 955
e 37 958
e 37 983
e 37 988
e 37 991
e 37 1000
e 38 254
e 38 268
e 38 270
e 38 281
e 38 292
e 38 298
e 38 306
e 38 319
e 38 320
e 38 322
e 38 329
e 38 337
e 38 349
e 38 355
e 38 357
e 38 367
e 38 369
e 38 388
e 38 403
e 38 447
e 38 471
e 38 473
e 38 475
e 38 478
e 38 487
e 38 495
e 38 507
e 38 520
e 38 530
e 38 541
e 38 554
e 38 560
e 38 570
e 38 578
e 38 580
e 38 586
e 38 588
e 38 592
e 38 597
e 38 601
e 38 603
e 38 613
e 38 614
e 38 615
e 38 634
e 38 653
e 38 658
e 38 666
e 38 671
e 38 680
e 38 686
e 38 690
e 38 692
e 38 697
e 38 700
e 38 702
e 38 705
e 38 723
e 38 759
e 38 766
e 38 771
e 38 779
e 38 781
e 38 786
e 38 796
e 38 826
e 38 828
e 38 844
e 38 852
e 38 859
e 38 877
e 38 895
e 38 900
e 38 925
e 38 933
e 38 946
e 38 970
e 38 971
e 38 978
e 38 985
e 38 986
e 39 253
e 39 263
e 39 287
e 39 295
e 39 312
e 39 313
e 39 350
e 39 373
e 39 384
e 39 389
e 39 401
e 39 419
e 39 431
e 39 433
e 39 452
e 39 456
e 39 465
e 39 471
e 39 485
e 39 488
e 39 499
e 39 509
e 39 514
e 39 569
e 39 574
e 39 578
e 39 587
e 39 623
e 39 626
e 39 628
e 39 634
e 39 636
e 39 686
e 39 687
e 39 699
e 39 705
e 39 706
e 39 722
e 39 740
e 39 741
e 39 761
e 39 774
e 39 775
e 39 780
e 39 783
e 39 785
e 39 799
e 39 811
e 39 817
e 39 822
e 39 828
e 39 831
e 39 848
e 39 856
e 39 870
e 39 889
e 39 898
e 39 902
e 39 913
e 39 918
e 39 928
e 39 950
e 39 954
e 39 970
e 39 972
e 39 988
e 39 991
e 39 998
e 39 999
e 40 253
e 40 269
e 40 270
e 40 272
e 40 274
e 40 275
e 40 284
e 40 292
e 40 318
e 40 326
e 40 343
e 40 375
e 40 377
e 40 408
e 40 417
e 40 443
e 40 445
e 40 454
e 40 455
e 40 481
e 40 496
e 40 505
e 40 506
e 40 509
e 40 510
e 40 518
e 40 558
e 40 564
e 40 579
e 40 580
e 40 588
e 40 598
e 40 605
e 40 608
e 40 617
e 40 619
e 40 621
e 40 622
e 40 634
e 40 663
e 40 666
e 40 675
e 40 677
e 40 681
e 40 688
e 40 699
e 40 731
e 40 734
e 40 735
e 40 750
e 40 755
e 40 761
e 40 767
e 40 769
e 40 770
e 40 788
e 40 792
e 40 798
e 40 806
e 40 812
e 40 815
e 40 821
e 40 841
e 40 846
e 40 868
e 40 880
e 40 893
e 40 900
e 40 907
e 40 910
e 40 920
e 40 929
e 40 939
e 40 940
e 40 944
e 40 958
e 40 961
e 40 964
e 40 968
e 40 980
e 40 981
e 41 264
e 41 270
e 41 282
e 41 300
e 41 324
e 41 333
e 41 337
e 41 347
e 41 368
e 41 370
e 41 371
e 41 372
e 41 398
e 41 403
e 41 409
e 41 410
e 41 423
e 41 427
e 41 458
e 41 488
e 41 489
e 41 492
e 41 505
e 41 511
e 41 519
e 41 528
e 41 552
e 41 556
e 41 575
e 41 589
e 41 601
e 41 622
e 41 623
e 41 627
e 41 631
e 41 649
e 41 652
e 41 663
e 41 665
e 41 680
e 41 681
e 41 683
e 41 684
e 41 686
e 41 687
e 41 688
e 41 690
e 41 715
e 41 716
e 41 718
e 41 754
e 41 770
e 41 774
e 41 784
e 41 789
e 41 796
e 41 810
e 41 815
e 41 825
e 41 837
e 41 854
e 41 859
e 41 860
e 41 876
e 41 879
e 41 915
e 41 939
e 41 948
e 41 966
e 41 969
e 41 977
e 41 978
e 41 988
e 41 991
e 41 996
e 41 998
e 42 253
e 42 260
e 42 262
e 42 269
e 42 273
e 42 278
e 42 292
e 42 315
e 42 319
e 42 322
e 42 324
e 42 326
e 42 343
e 42 353
e 42 362
e 42 375
e 42 382
e 42 389
e 42 390
e 42 396
e 42 405
e 42 421
e 42 431
e 42 432
e 42 437
e 42 442
e 42 447
e 42 453
e 42 469
e 42 480
e 42 494
e 42 496
e 42 498
e 42 500
e 42 503
e 42 506
e 42 525
e 42 526
e 42 537
e 42 547
e 42 554
e 42 555
e 42 570
e 42 572
e 42 575
e 42 580
e 42 583
e 42 585
e 42 609
e 42 611
e 42 615
e 42 623
e 42 642
e 42 667
e 42 670
e 42 673
e 42 679
e 42 681
e 42 686
e 42 701
e 42 706
e 42 713
e 42 742
e 42 745
e 42 832
e 42 843
e 42 844
e 42 858
e 42 879
e 42 887
e 42 897
e 42 899
e 42 901
e 42 918
e 42 922
e 42 932
e 42 935
e 42 947
e 42 953
e 42 992
e 42 995
e 43 255
e 43 257
e 43 268
e 43 274
e 43 276
e 43 285
e 43 286
e 43 300
e 43 306
e 43 319
e 43 322
e 43 326
e 43 327
e 43 334
e 43 345
e 43 366
e 43 376
e 43 387
e 43 394
e 43 395
e 43 400
e 43 422
e 43 439
e 43 443
e 43 448
e 43 464
e 43 467
e 43 496
e 43 519
e 43 536
e 43 547
e 43 571
e 43 575
e 43 583
e 43 594
e 43 597
e 43 660
e 43 663
e 43 670
e 43 672
e 43 675
e 43 684
e 43 693
e 43 707
e 43 710
e 43 716
e 43 720
e 43 738
e 43 768
e 43 779
e 43 781
e 43 783
e 43 792
e 43 797
e 43 807
e 43 852
e 43 859
e 43 862
e 43 875
e 43 880
e 43 897
e 43 900
e 43 910
e 43 913
e 43 922
e 43 935
e 43 940
e 43 955
e 43 975
e 43 982
e 43 989
e 44 261
e 44 289
e 44 290
e 44 327
e 44 329
e 44 336
e 44 338
e 44 342
e 44 347
e 44 350
e 44 368
e 44 375
e 44 387
e 44 390
e 44 391
e 44 400
e 44 418
e 44 426
e 44 441
e 44 462
e 44 465
e 44 466
e 44 473
e 44 498
e 44 504
e 44 507
e 44 510
e 44 528
e 44 540
e 44 548
e 44 549
e 44 561
e 44 566
e 44 574
e 44 580
e 44 590
e 44 606
e 44 618
e 44 635
e 44 644
e 44 679
e 44 686
e 44 693
e 44 702
e 44 716
e 44 726
e 44 732
e 44 746
e 44 747
e 44 783
e 44 785
e 44 787
e 44 792
e 44 794
e 44 797
e 44 800
e 44 803
e 44 806
e 44 813
e 44 816
e 44 852
e 44 871
e 44 872
e 44 902
e 44 915
e 44 917
e 44 923
e 44 937
e 44 938
e 44 942
e 44 948
e 44 960
e 44 983
e 44 984
e 44 996
e 44 997
e 44 999
e 45 252
e 45 253
e 45 254
e 45 266
e 45 273
e 45 290
e 45 292
e 45 305
e 45 328
e 45 335
e 45 341
e 45 347
e 45 360
e 45 373
e 45 380
e 45 385
e 45 414
e 45 422
e 45 433
e 45 447
e 45 450
e 45 454
e 45 459
e 45 470
e 45 474
e 45 482
e 45 486
e 45 505
e 45 523
e 45 538
e 45 543
e 45 548
e 45 573
e 45 576
e 45 580
e 45 582
e 45 592
e 45 604
e 45 615
e 45 634
e 45 638
e 45 641
e 45 645
e 45 652
e 45 661
e 45 671
e 45 681
e 45 699
e 45 702
e 45 713
e 45 716
e 45 734
e 45 742
e 45 744
e 45 747
e 45 766
e 45 781
e 45 792
e 45 793
e 45 804
e 45 809
e 45 811
e 45 825
e 45 831
e 45 835
e 45 839
e 45 845
e 45 849
e 45 854
e 45 857
e 45 866
e 45 874
e 45 889
e 45 892
e 45 896
e 45 898
e 45 906
e 45 912
e 45 928
e 45 945
e 45 955
e 45 967
e 45 968
e 45 984
e 45 988
e 45 994
e 45 998
e 46 271
e 46 287
e 46 307
e 46 318
e 46 329
e 46 338
e 46 344
e 46 352
e 46 372
e 46 376
e 46 382
e 46 403
e 46 429
e 46 436
e 46 457
e 46 458
e 46 491
e 46 496
e 46 499
e 46 501
e 46 503
e 46 532
e 46 541
e 46 542
e 46 553
e 46 559
e 46 562
e 46 563
e 46 585
e 46 589
e 46 636
e 46 659
e 46 663
e 46 691
e 46 693
e 46 706
e 46 713
e 46 714
e 46 728
e 46 729
e 46 734
e 46 742
e 46 762
e 46 765
e 46 774
e 46 783
e 46 801
e 46 809
e 46 813
e 46 841
e 46 843
e 46 855
e 46 868
e 46 869
e 46 889
e 46 893
e 46 907
e 46 924
e 46 934
e 46 937
e 46 940
e 46 951
e 46 961
e 46 966
e 46 978
e 46 984
e 46 989
e 46 999
e 47 258
e 47 261
e 47 289
e 47 301
e 47 307
e 47 312
e 47 330
e 47 331
e 47 336
e 47 341
e 47 352
e 47 375
e 47 380
e 47 388
e 47 397
e 47 416
e 47 417
e 47 432
e 47 438
e 47 446
e 47 451
e 47 454
e 47 459
e 47 467
e 47 473
e 47 475
e 47 480
e 47 484
e 47 501
e 47 505
e 47 525
e 47 566
e 47 567
e 47 590
e 47 604
e 47 605
e 47 608
e 47 609
e 47 637
e 47 638
e 47 639
e 47 652
e 47 661
e 47 666
e 47 672
e 47 696
e 47 699
e 47 727
e 47 730
e 47 760
e 47 778
e 47 789
e 47 790
e 47 802
e 47 805
e 47 814
e 47 819
e 47 821
e 47 823
e 47 824
e 47 827
e 47 828
e 47 835
e 47 837
e 47 838
e 47 867
e 47 896
e 47 909
e 47 912
e 47 916
e 47 918
e 47 938
e 47 939
e 47 970
e 47 976
e 47 978
e 47 995
e 47 996
e 48 251
e 48 258
e 48 260
e 48 273
e 48 281
e 48 284
e 48 286
e 48 287
e 48 298
e 48 314
e 48 321
e 48 322
e 48 326
e 48 329
e 48 334
e 48 343
e 48 350
e 48 354
e 48 359
e 48 363
e 48 376
e 48 389
e 48 396
e 48 397
e 48 398
e 48 406
e 48 408
e 48 421
e 48 428
e 48 448
e 48 476
e 48 487
e 48 494
e 48 503
e 48 512
e 48 513
e 48 520
e 48 538
e 48 542
e 48 544
e 48 557
e 48 564
e 48 567
e 48 576
e 48 585
e 48 590
e 48 608
e 48 609
e 48 641
e 48 653
e 48 661
e 48 667
e 48 670
e 48 673
e 48 674
e 48 683
e 48 690
e 48 708
e 48 711
e 48 717
e 48 722
e 48 727
e 48 764
e 48 767
e 48 776
e 48 778
e 48 779
e 48 797
e 48 803
e 48 804
e 48 815
e 48 818
e 48 830
e 48 835
e 48 836
e 48 846
e 48 855
e 48 870
e 48 874
e 48 884
e 48 894
e 48 909
e 48 912
e 48 927
e 48 934
e 48 938
e 48 948
e 48 957
e 48 969
e 48 974
e 48 981
e 48 993
e 49 255
e 49 268
e 49 279
e 49 306
e 49 316
e 49 322
e 49 324
e 49 328
e 49 335
e 49 343
e 49 348
e 49 351
e 49 362
e 49 402
e 49 409
e 49 411
e 49 427
e 49 436
e 49 464
e 49 465
e 49 466
e 49 470
e 49 475
e 49 476
e 49 479
e 49 484
e 49 487
e 49 488
e 49 499
e 49 508
e 49 525
e 49 533
e 49 537
e 49 538
e 49 540
e 49 550
e 49 553
e 49 562
e 49 569
e 49 572
e 49 578
e 49 590
e 49 632
e 49 633
e 49 634
e 49 652
e 49 654
e 49 662
e 49 664
e 49 671
e 49 677
e 49 679
e 49 683
e 49 686
e 49 705
e 49 716
e 49 722
e 49 729
e 49 732
e 49 744
e 49 756
e 49 758
e 49 764
e 49 766
e 49 773
e 49 787
e 49 793
e 49 796
e 49 801
e 49 802
e 49 880
e 49 884
e 49 888
e 49 891
e 49 897
e 49 920
e 49 926
e 49 936
e 49 947
e 49 964
e 49 966
e 49 972
e 49 991
e 49 995
e 50 260
e 50 269
e 50 271
e 50 274
e 50 295
e 50 339
e 50 346
e 50 362
e 50 372
e 50 375
e 50 376
e 50 390
e 50 406
e 50 414
e 50 441
e 50 448
e 50 453
e 50 458
e 50 463
e 50 472
e 50 482
e 50 502
e 50 507
e 50 513
e 50 520
e 50 522
e 50 525
e 50 526
e 50 528
e 50 536
e 50 555
e 50 576
e 50 596
e 50 600
e 50 601
e 50 606
e 50 609
e 50 625
e 50 641
e 50 647
e 50 657
e 50 663
e 50 664
e 50 676
e 50 700
e 50 701
e 50 741
e 50 743
e 50 745
e 50 746
e 50 750
e 50 766
e 50 773
e 50 777
e 50 778
e 50 812
e 50 830
e 50 847
e 50 851
e 50 857
e 50 864
e 50 865
e 50 866
e 50 874
e 50 889
e 50 898
e 50 933
e 50 935
e 50 943
e 50 955
e 50 958
e 50 965
e 50 984
e 50 987
e 50 992
e 50 997
e 50 1000
e 51 264
e 51 271
e 51 276
e 51 293
e 51 295
e 51 298
e 51 299
e 51 301
e 51 303
e 51 345
e 51 348
e 51 357
e 51 361
e 51 363
e 51 369
e 51 373
e 51 386
e 51 404
e 51 425
e 51 428
e 51 436
e 51 442
e 51 447
e 51 449
e 51 459
e 51 466
e 51 472
e 51 475
e 51 476
e 51 485
e 51 491
e 51 494
e 51 495
e 51 500
e 51 524
e 51 534
e 51 544
e 51 547
e 51 550
e 51 556
e 51 558
e 51 562
e 51 565
e 51 594
e 51 612
e 51 627
e 51 628
e 51 632
e 51 645
e 51 653
e 51 659
e 51 662
e 51 679
e 51 692
e 51 696
e 51 707
e 51 709
e 51 715
e 51 733
e 51 735
e 51 741
e 51 742
e 51 777
e 51 789
e 51 795
e 51 802
e 51 805
e 51 806
e 51 825
e 51 833
e 51 840
e 51 846
e 51 848
e 51 857
e 51 865
e 51 883
e 51 888
e 51 898
e 51 900
e 51 903
e 51 912
e 51 918
e 51 923
e 51 924
e 51 930
e 51 934
e 51 935
e 51 962
e 51 963
e 51 972
e 51 984
e 51 990
e 52 252
e 52 260
e 52 263
e 52 268
e 52 282
e 52 285
e 52 287
e 52 289
e 52 291
e 52 296
e 52 307
e 52 336
e 52 338
e 52 341
e 52 360
e 52 372
e 52 410
e 52 423
e 52 448
e 52 457
e 52 470
e 52 547
e 52 559
e 52 568
e 52 606
e 52 613
e 52 625
e 52 626
e 52 632
e 52 643
e 52 650
e 52 652
e 52 660
e 52 673
e 52 681
e 52 689
e 52 705
e 52 711
e 52 722
e 52 734
e 52 738
e 52 742
e 52 754
e 52 786
e 52 796
e 52 802
e 52 813
e 52 825
e 52 828
e 52 842
e 52 849
e 52 852
e 52 856
e 52 862
e 52 863
e 52 867
e 52 873
e 52 876
e 52 879
e 52 882
e 52 884
e 52 894
e 52 922
e 52 944
e 52 951
e 52 964
e 52 970
e 52 979
e 52 984
e 52 995
e 53 280
e 53 283
e 53 285
e 53 293
e 53 314
e 53 327
e 53 351
e 53 371
e 53 388
e 53 400
e 53 415
e 53 417
e 53 421
e 53 427
e 53 430
e 53 445
e 53 471
e 53 475
e 53 477
e 53 479
e 53 514
e 53 521
e 53 528
e 53 555
e 53 567
e 53 575
e 53 577
e 53 586
e 53 594
e 53 601
e 53 611
e 53 617
e 53 618
e 53 636
e 53 650
e 53 669
e 53 671
e 53 672
e 53 681
e 53 683
e 53 686
e 53 700
e 53 720
e 53 721
e 53 730
e 53 733
e 53 739
e 53 767
e 53 769
e 53 773
e 53 783
e 53 816
e 53 821
e 53 825
e 53 867
e 53 871
e 53 880
e 53 881
e 53 884
e 53 888
e 53 910
e 53 914
e 53 946
e 53 959
e 53 965
e 53 982
e 53 983
e 54 257
e 54 310
e 54 315
e 54 332
e 54 338
e 54 340
e 54 356
e 54 402
e 54 408
e 54 409
e 54 419
e 54 428
e 54 449
e 54 455
e 54 464
e 54 467
e 54 468
e 54 476
e 54 480
e 54 495
e 54 499
e 54 502
e 54 504
e 54 508
e 54 522
e 54 524
e 54 574
e 54 576
e 54 581
e 54 596
e 54 602
e 54 613
e 54 650
e 54 661
e 54 677
e 54 683
e 54 695
e 54 698
e 54 705
e 54 707
e 54 708
e 54 709
e 54 739
e 54 740
e 54 746
e 54 757
e 54 768
e 54 781
e 54 791
e 54 818
e 54 828
e 54 829
e 54 834
e 54 835
e 54 849
e 54 867
e 54 872
e 54 880
e 54 883
e 54 894
e 54 896
e 54 899
e 54 917
e 54 954
e 54 957
e 54 958
e 54 974
e 54 995
e 55 253
e 55 255
e 55 286
e 55 295
e 55 301
e 55 307
e 55 311
e 55 312
e 55 322
e 55 326
e 55 340
e 55 354
e 55 361
e 55 372
e 55 402
e 55 411
e 55 414
e 55 423
e 55 429
e 55 430
e 55 441
e 55 443
e 55 447
e 55 462
e 55 475
e 55 484
e 55 495
e 55 496
e 55 499
e 55 500
e 55 513
e 55 518
e 55 538
e 55 544
e 55 579
e 55 581
e 55 583
e 55 593
e 55 603
e 55 621
e 55 631
e 55 632
e 55 634
e 55 638
e 55 659
e 55 667
e 55 676
e 55 693
e 55 710
e 55 719
e 55 755
e 55 759
e 55 764
e 55 771
e 55 777
e 55 782
e 55 801
e 55 809
e 55 814
e 55 824
e 55 830
e 55 831
e 55 832
e 55 837
e 55 854
e 55 883
e 55 890
e 55 900
e 55 903
e 55 908
e 55 944
e 55 946
e 55 956
e 55 963
e 55 976
e 55 998
e 56 273
e 56 313
e 56 321
e 56 322
e 56 351
e 56 360
e 56 367
e 56 379
e 56 381
e 56 388
e 56 389
e 56 407
e 56 419
e 56 443
e 56 445
e 56 447
e 56 470
e 56 473
e 56 482
e 56 485
e 56 496
e 56 504
e 56 506
e 56 508
e 56 517
e 56 520
e 56 525
e 56 539
e 56 550
e 56 563
e 56 568
e 56 581
e 56 590
e 56 596
e 56 602
e 56 614
e 56 616
e 56 642
e 56 647
e 56 650
e 56 653
e 56 659
e 56 667
e 56 669
e 56 671
e 56 673
e 56 686
e 56 689
e 56 694
e 56 711
e 56 715
e 56 718
e 56 722
e 56 731
e 56 739
e 56 746
e 56 755
e 56 769
e 56 790
e 56 794
e 56 801
e 56 818
e 56 829
e 56 861
e 56 868
e 56 885
e 56 886
e 56 895
e 56 928
e 56 937
e 56 948
e 56 961
e 56 970
e 56 992
e 56 996
e 57 263
e 57 288
e 57 305
e 57 308
e 57 315
e 57 318
e 57 329
e 57 347
e 57 349
e 57 351
e 57 353
e 57 354
e 57 370
e 57 374
e 57 402
e 57 426
e 57 429
e 57 436
e 57 437
e 57 453
e 57 454
e 57 455
e 57 505
e 57 508
e 57 510
e 57 513
e 57 526
e 57 534
e 57 551
e 57 556
e 57 559
e 57 593
e 57 603
e 57 675
e 57 679
e 57 684
e 57 717
e 57 734
e 57 742
e 57 784
e 57 788
e 57 791
e 57 794
e 57 800
e 57 801
e 57 822
e 57 837
e 57 844
e 57 856
e 57 858
e 57 859
e 57 864
e 57 900
e 57 928
e 57 950
e 57 958
e 57 963
e 57 964
e 57 971
e 57 972
e 57 980
e 57 987
e 57 989
e 57 994
e 57 1000
e 58 252
e 58 270
e 58 273
e 58 285
e 58 332
e 58 335
e 58 383
e 58 389
e 58 420
e 58 436
e 58 438
e 58 455
e 58 460
e 58 483
e 58 524
e 58 562
e 58 564
e 58 582
e 58 593
e 58 595
e 58 596
e 58 608
e 58 624
e 58 639
e 58 657
e 58 671
e 58 672
e 58 676
e 58 678
e 58 689
e 58 698
e 58 717
e 58 729
e 58 732
e 58 740
e 58 767
e 58 776
e 58 784
e 58 799
e 58 805
e 58 814
e 58 818
e 58 829
e 58 832
e 58 844
e 58 865
e 58 875
e 58 876
e 58 885
e 58 891
e 58 893
e 58 907
e 58 928
e 58 929
e 58 939
e 58 950
e 59 257
e 59 261
e 59 267
e 59 271
e 59 298
e 59 300
e 59 310
e 59 323
e 59 339
e 59 350
e 59 351
e 59 352
e 59 364
e 59 365
e 59 367
e 59 371
e 59 373
e 59 390
e 59 395
e 59 401
e 59 415
e 59 420
e 59 422
e 59 423
e 59 427
e 59 442
e 59 457
e 59 475
e 59 484
e 59 487
e 59 492
e 59 511
e 59 519
e 59 539
e 59 567
e 59 574
e 59 593
e 59 617
e 59 621
e 59 626
e 59 627
e 59 640
e 59 651
e 59 656
e 59 665
e 59 688
e 59 706
e 59 707
e 59 716
e 59 761
e 59 788
e 59 790
e 59 791
e 59 794
e 59 808
e 59 809
e 59 815
e 59 830
e 59 832
e 59 835
e 59 846
e 59 858
e 59 861
e 59 865
e 59 869
e 59 873
e 59 879
e 59 909
e 59 949
e 59 955
e 59 957
e 59 958
e 59 960
e 59 974
e 59 975
e 59 995
e 59 998
e 60 257
e 60 269
e 60 291
e 60 315
e 60 320
e 60 331
e 60 352
e 60 356
e 60 360
e 60 361
e 60 362
e 60 365
e 60 366
e 60 367
e 60 374
e 60 381
e 60 392
e 60 402
e 60 406
e 60 409
e 60 411
e 60 422
e 60 433
e 60 437
e 60 449
e 60 450
e 60 452
e 60 458
e 60 460
e 60 463
e 60 517
e 60 521
e 60 548
e 60 551
e 60 559
e 60 566
e 60 594
e 60 607
e 60 635
e 60 639
e 60 651
e 60 665
e 60 685
e 60 709
e 60 720
e 60 721
e 60 733
e 60 741
e 60 745
e 60 770
e 60 774
e 60 776
e 60 785
e 60 796
e 60 798
e 60 840
e 60 845
e 60 867
e 60 888
e 60 904
e 60 910
e 60 917
e 60 935
e 60 943
e 60 955
e 60 977
e 60 978
e 61 251
e 61 253
e 61 260
e 61 265
e 61 288
e 61 293
e 61 302
e 61 303
e 61 327
e 61 342
e 61 345
e 61 363
e 61 365
e 61 368
e 61 380
e 61 382
e 61 384
e 61 402
e 61 405
e 61 406
e 61 418
e 61 420
e 61 435
e 61 439
e 61 442
e 61 448
e 61 457
e 61 458
e 61 463
e 61 489
e 61 498
e 61 505
e 61 515
e 61 525
e 61 542
e 61 549
e 61 555
e 61 558
e 61 574
e 61 578
e 61 587
e 61 589
e 61 593
e 61 604
e 61 606
e 61 607
e 61 610
e 61 631
e 61 646
e 61 652
e 61 683
e 61 708
e 61 727
e 61 733
e 61 739
e 61 746
e 61 749
e 61 755
e 61 760
e 61 765
e 61 771
e 61 775
e 61 788
e 61 792
e 61 794
e 61 798
e 61 801
e 61 806
e 61 847
e 61 857
e 61 858
e 61 860
e 61 891
e 61 908
e 61 954
e 61 982
e 61 984
e 61 985
e 61 996
e 62 254
e 62 255
e 62 269
e 62 279
e 62 294
e 62 303
e 62 335
e 62 346
e 62 361
e 62 401
e 62 402
e 62 423
e 62 425
e 62 432
e 62 438
e 62 450
e 62 463
e 62 466
e 62 475
e 62 478
e 62 485
e 62 488
e 62 493
e 62 501
e 62 508
e 62 513
e 62 517
e 62 530
e 62 533
e 62 541
e 62 545
e 62 557
e 62 578
e 62 585
e 62 586
e 62 600
e 62 608
e 62 619
e 62 621
e 62 622
e 62 631
e 62 633
e 62 634
e 62 640
e 62 654
e 62 660
e 62 663
e 62 666
e 62 671
e 62 674
e 62 678
e 62 679
e 62 689
e 62 726
e 62 728
e 62 730
e 62 731
e 62 732
e 62 735
e 62 749
e 62 757
e 62 759
e 62 768
e 62 771
e 62 774
e 62 779
e 62 782
e 62 792
e 62 798
e 62 813
e 62 814
e 62 820
e 62 834
e 62 853
e 62 854
e 62 869
e 62 874
e 62 881
e 62 882
e 62 883
e 62 911
e 62 933
e 62 953
e 62 972
e 62 994
e 63 261
e 63 262
e 63 266
e 63 275
e 63 276
e 63 277
e 63 285
e 63 286
e 63 300
e 63 311
e 63 316
e 63 332
e 63 335
e 63 357
e 63 366
e 63 369
e 63 371
e 63 372
e 63 384
e 63 395
e 63 400
e 63 401
e 63 403
e 63 420
e 63 422
e 63 424
e 63 430
e 63 457
e 63 468
e 63 477
e 63 479
e 63 487
e 63 512
e 63 530
e 63 549
e 63 558
e 63 559
e 63 602
e 63 610
e 63 613
e 63 633
e 63 638
e 63 643
e 63 664
e 63 674
e 63 676
e 63 677
e 63 678
e 63 687
e 63 709
e 63 722
e 63 752
e 63 759
e 63 774
e 63 775
e 63 781
e 63 793
e 63 812
e 63 827
e 63 830
e 63 838
e 63 839
e 63 846
e 63 852
e 63 866
e 63 876
e 63 884
e 63 903
e 63 916
e 63 920
e 63 927
e 63 942
e 63 947
e 63 955
e 63 964
e 63 981
e 64 258
e 64 259
e 64 261
e 64 269
e 64 270
e 64 273
e 64 279
e 64 301
e 64 302
e 64 303
e 64 324
e 64 325
e 64 342
e 64 352
e 64 364
e 64 400
e 64 431
e 64 454
e 64 459
e 64 462
e 64 502
e 64 503
e 64 555
e 64 556
e 64 572
e 64 575
e 64 581
e 64 618
e 64 619
e 64 623
e 64 625
e 64 643
e 64 651
e 64 657
e 64 665
e 64 668
e 64 674
e 64 690
e 64 699
e 64 707
e 64 721
e 64 733
e 64 743
e 64 749
e 64 766
e 64 771
e 64 779
e 64 781
e 64 793
e 64 807
e 64 817
e 64 828
e 64 842
e 64 844
e 64 851
e 64 855
e 64 864
e 64 869
e 64 873
e 64 898
e 64 899
e 64 915
e 64 921
e 64 930
e 64 932
e 64 944
e 64 949
e 64 953
e 64 959
e 64 962
e 64 966
e 64 977
e 64 981
e 64 995
e 65 253
e 65 256
e 65 259
e 65 272
e 65 302
e 65 312
e 65 322
e 65 327
e 65 341
e 65 343
e 65 362
e 65 375
e 65 379
e 65 393
e 65 398
e 65 426
e 65 453
e 65 455
e 65 459
e 65 467
e 65 472
e 65 486
e 65 494
e 65 500
e 65 505
e 65 517
e 65 531
e 65 533
e 65 543
e 65 544
e 65 547
e 65 550
e 65 556
e 65 559
e 65 566
e 65 576
e 65 586
e 65 591
e 65 597
e 65 626
e 65 644
e 65 645
e 65 673
e 65 675
e 65 689
e 65 702
e 65 703
e 65 711
e 65 712
e 65 726
e 65 730
e 65 733
e 65 736
e 65 743
e 65 753
e 65 774
e 65 791
e 65 794
e 65 840
e 65 845
e 65 852
e 65 859
e 65 860
e 65 873
e 65 903
e 65 911
e 65 917
e 65 925
e 65 933
e 65 956
e 65 970
e 65 976
e 65 978
e 65 999
e 66 256
e 66 260
e 66 279
e 66 288
e 66 296
e 66 300
e 66 309
e 66 315
e 66 317
e 66 318
e 66 321
e 66 329
e 66 337
e 66 338
e 66 342
e 66 377
e 66 378
e 66 380
e 66 394
e 66 413
e 66 423
e 66 428
e 66 439
e 66 444
e 66 445
e 66 448
e 66 461
e 66 467
e 66 486
e 66 501
e 66 502
e 66 511
e 66 514
e 66 523
e 66 534
e 66 542
e 66 554
e 66 580
e 66 587
e 66 589
e 66 590
e 66 627
e 66 631
e 66 632
e 66 641
e 66 648
e 66 654
e 66 657
e 66 690
e 66 693
e 66 712
e 66 721
e 66 723
e 66 728
e 66 731
e 66 761
e 66 763
e 66 765
e 66 768
e 66 776
e 66 786
e 66 789
e 66 804
e 66 809
e 66 811
e 66 822
e 66 829
e 66 831
e 66 839
e 66 847
e 66 862
e 66 873
e 66 874
e 66 877
e 66 886
e 66 892
e 66 896
e 66 898
e 66 936
e 66 937
e 66 939
e 66 941
e 66 952
e 66 963
e 66 973
e 66 981
e 66 985
e 66 1000
e 67 260
e 67 263
e 67 268
e 67 270
e 67 272
e 67 274
e 67 286
e 67 305
e 67 314
e 67 317
e 67 322
e 67 330
e 67 331
e 67 333
e 67 364
e 67 370
e 67 378
e 67 401
e 67 402
e 67 409
e 67 413
e 67 423
e 67 441
e 67 442
e 67 446
e 67 451
e 67 467
e 67 471
e 67 479
e 67 510
e 67 512
e 67 531
e 67 536
e 67 539
e 67 540
e 67 552
e 67 553
e 67 554
e 67 561
e 67 581
e 67 590
e 67 594
e 67 598
e 67 603
e 67 607
e 67 608
e 67 613
e 67 620
e 67 627
e 67 637
e 67 652
e 67 664
e 67 668
e 67 676
e 67 678
e 67 690
e 67 696
e 67 722
e 67 738
e 67 742
e 67 747
e 67 752
e 67 757
e 67 815
e 67 821
e 67 828
e 67 845
e 67 848
e 67 854
e 67 856
e 67 862
e 67 879
e 67 897
e 67 898
e 67 913
e 67 919
e 67 925
e 67 926
e 67 956
e 67 957
e 67 959
e 67 963
e 67 979
e 67 981
e 68 255
e 68 259
e 68 260
e 68 275
e 68 279
e 68 306
e 68 307
e 68 308
e 68 312
e 68 337
e 68 343
e 68 345
e 68 362
e 68 371
e 68 377
e 68 379
e 68 385
e 68 386
e 68 410
e 68 424
e 68 444
e 68 452
e 68 455
e 68 474
e 68 489
e 68 496
e 68 526
e 68 553
e 68 558
e 68 584
e 68 586
e 68 616
e 68 619
e 68 627
e 68 634
e 68 645
e 68 649
e 68 652
e 68 661
e 68 667
e 68 679
e 68 682
e 68 690
e 68 694
e 68 699
e 68 701
e 68 703
e 68 705
e 68 707
e 68 712
e 68 722
e 68 723
e 68 731
e 68 738
e 68 742
e 68 748
e 68 749
e 68 764
e 68 775
e 68 789
e 68 793
e 68 799
e 68 801
e 68 805
e 68 828
e 68 892
e 68 907
e 68 938
e 68 940
e 68 942
e 68 969
e 68 973
e 68 976
e 68 986
e 68 996
e 68 997
e 68 1000
e 69 253
e 69 259
e 69 267
e 69 303
e 69 310
e 69 327
e 69 365
e 69 369
e 69 379
e 69 400
e 69 404
e 69 406
e 69 457
e 69 474
e 69 482
e 69 491
e 69 495
e 69 507
e 69 512
e 69 514
e 69 522
e 69 549
e 69 554
e 69 555
e 69 563
e 69 571
e 69 576
e 69 601
e 69 611
e 69 628
e 69 632
e 69 666
e 69 689
e 69 699
e 69 702
e 69 704
e 69 711
e 69 723
e 69 741
e 69 753
e 69 757
e 69 764
e 69 774
e 69 775
e 69 784
e 69 809
e 69 817
e 69 822
e 69 828
e 69 859
e 69 861
e 69 869
e 69 874
e 69 906
e 69 918
e 69 925
e 69 940
e 69 942
e 69 958
e 69 960
e 69 964
e 69 969
e 69 972
e 70 258
e 70 262
e 70 263
e 70 266
e 70 267
e 70 279
e 70 280
e 70 291
e 70 328
e 70 336
e 70 344
e 70 353
e 70 357
e 70 363
e 70 370
e 70 379
e 70 386
e 70 389
e 70 395
e 70 427
e 70 428
e 70 467
e 70 478
e 70 482
e 70 490
e 70 522
e 70 537
e 70 565
e 70 566
e 70 576
e 70 579
e 70 594
e 70 597
e 70 599
e 70 606
e 70 611
e 70 613
e 70 618
e 70 621
e 70 624
e 70 632
e 70 642
e 70 685
e 70 691
e 70 719
e 70 728
e 70 729
e 70 731
e 70 733
e 70 750
e 70 774
e 70 783
e 70 792
e 70 805
e 70 819
e 70 840
e 70 849
e 70 868
e 70 872
e 70 879
e 70 886
e 70 887
e 70 894
e 70 939
e 70 946
e 70 952
e 70 960
e 70 964
e 70 968
e 70 969
e 70 976
e 70 979
e 70 989
e 70 994
e 70 996
e 70 997
e 71 265
e 71 270
e 71 271
e 71 284
e 71 285
e 71 292
e 71 348
e 71 369
e 71 383
e 71 392
e 71 403
e 71 411
e 71 420
e 71 426
e 71 442
e 71 445
e 71 452
e 71 459
e 71 476
e 71 481
e 71 495
e 71 519
e 71 523
e 71 525
e 71 544
e 71 565
e 71 573
e 71 597
e 71 618
e 71 622
e 71 636
e 71 655
e 71 666
e 71 669
e 71 679
e 71 680
e 71 683
e 71 704
e 71 713
e 71 732
e 71 734
e 71 742
e 71 745
e 71 761
e 71 784
e 71 798
e 71 830
e 71 834
e 71 840
e 71 852
e 71 860
e 71 861
e 71 866
e 71 872
e 71 877
e 71 878
e 71 882
e 71 883
e 71 900
e 71 906
e 71 915
e 71 937
e 71 940
e 71 944
e 71 957
e 71 979
e 71 984
e 71 987
e 71 993
e 72 259
e 72 266
e 72 277
e 72 281
e 72 282
e 72 294
e 72 306
e 72 316
e 72 319
e 72 323
e 72 354
e 72 356
e 72 357
e 72 367
e 72 372
e 72 376
e 72 406
e 72 411
e 72 415
e 72 418
e 72 435
e 72 454
e 72 461
e 72 475
e 72 490
e 72 495
e 72 497
e 72 499
e 72 531
e 72 543
e 72 544
e 72 558
e 72 561
e 72 588
e 72 590
e 72 593
e 72 596
e 72 600
e 72 605
e 72 609
e 72 615
e 72 618
e 72 629
e 72 641
e 72 642
e 72 672
e 72 673
e 72 678
e 72 683
e 72 696
e 72 718
e 72 719
e 72 731
e 72 747
e 72 752
e 72 753
e 72 766
e 72 775
e 72 776
e 72 782
e 72 794
e 72 801
e 72 805
e 72 816
e 72 820
e 72 822
e 72 834
e 72 840
e 72 851
e 72 894
e 72 898
e 72 918
e 72 933
e 72 972
e 72 977
e 72 978
e 72 980
e 73 257
e 73 266
e 73 291
e 73 295
e 73 297
e 73 316
e 73 324
e 73 337
e 73 343
e 73 367
e 73 370
e 73 380
e 73 381
e 73 388
e 73 397
e 73 403
e 73 422
e 73 427
e 73 430
e 73 436
e 73 469
e 73 472
e 73 473
e 73 485
e 73 486
e 73 507
e 73 509
e 73 516
e 73 522
e 73 536
e 73 544
e 73 549
e 73 554
e 73 557
e 73 564
e 73 571
e 73 574
e 73 605
e 73 610
e 73 619
e 73 621
e 73 637
e 73 640
e 73 644
e 73 648
e 73 658
e 73 660
e 73 674
e 73 679
e 73 700
e 73 704
e 73 718
e 73 723
e 73 733
e 73 734
e 73 746
e 73 749
e 73 751
e 73 772
e 73 773
e 73 780
e 73 782
e 73 788
e 73 793
e 73 798
e 73 803
e 73 805
e 73 810
e 73 813
e 73 818
e 73 824
e 73 831
e 73 843
e 73 870
e 73 882
e 73 886
e 73 887
e 73 909
e 73 930
e 73 938
e 73 960
e 73 968
e 73 976
e 73 992
e 74 261
e 74 271
e 74 276
e 74 278
e 74 284
e 74 293
e 74 295
e 74 325
e 74 330
e 74 357
e 74 373
e 74 379
e 74 395
e 74 401
e 74 412
e 74 416
e 74 418
e 74 420
e 74 445
e 74 446
e 74 460
e 74 461
e 74 485
e 74 492
e 74 500
e 74 508
e 74 523
e 74 549
e 74 556
e 74 561
e 74 578
e 74 581
e 74 585
e 74 587
e 74 599
e 74 600
e 74 611
e 74 628
e 74 631
e 74 640
e 74 648
e 74 657
e 74 670
e 74 671
e 74 696
e 74 710
e 74 712
e 74 717
e 74 736
e 74 741
e 74 747
e 74 760
e 74 777
e 74 778
e 74 781
e 74 785
e 74 788
e 74 792
e 74 813
e 74 818
e 74 834
e 74 843
e 74 844
e 74 850
e 74 855
e 74 870
e 74 871
e 74 881
e 74 889
e 74 913
e 74 914
e 74 930
e 74 931
e 74 940
e 74 943
e 74 954
e 74 965
e 74 979
e 74 983
e 74 990
e 74 994
e 75 254
e 75 256
e 75 257
e 75 263
e 75 270
e 75 271
e 75 273
e 75 274
e 75 289
e 75 295
e 75 296
e 75 298
e 75 302
e 75 308
e 75 315
e 75 321
e 75 341
e 75 343
e 75 347
e 75 348
e 75 361
e 75 388
e 75 400
e 75 410
e 75 417
e 75 419
e 75 422
e 75 424
e 75 432
e 75 439
e 75 454
e 75 462
e 75 466
e 75 479
e 75 482
e 75 483
e 75 484
e 75 486
e 75 497
e 75 499
e 75 504
e 75 513
e 75 519
e 75 521
e 75 539
e 75 559
e 75 571
e 75 584
e 75 589
e 75 601
e 75 605
e 75 606
e 75 608
e 75 612
e 75 629
e 75 653
e 75 663
e 75 668
e 75 671
e 75 682
e 75 683
e 75 688
e 75 696
e 75 701
e 75 702
e 75 703
e 75 704
e 75 709
e 75 737
e 75 745
e 75 749
e 75 751
e 75 757
e 75 772
e 75 777
e 75 811
e 75 819
e 75 838
e 75 843
e 75 844
e 75 845
e 75 850
e 75 861
e 75 884
e 75 886
e 75 892
e 75 931
e 75 957
e 75 962
e 75 977
e 76 257
e 76 268
e 76 276
e 76 285
e 76 286
e 76 288
e 76 309
e 76 316
e 76 319
e 76 334
e 76 345
e 76 381
e 76 387
e 76 397
e 76 400
e 76 435
e 76 444
e 76 457
e 76 523
e 76 560
e 76 589
e 76 591
e 76 601
e 76 604
e 76 634
e 76 648
e 76 653
e 76 664
e 76 665
e 76 672
e 76 673
e 76 674
e 76 699
e 76 704
e 76 705
e 76 711
e 76 726
e 76 734
e 76 751
e 76 763
e 76 767
e 76 776
e 76 780
e 76 783
e 76 788
e 76 812
e 76 836
e 76 837
e 76 838
e 76 840
e 76 862
e 76 863
e 76 864
e 76 869
e 76 870
e 76 878
e 76 888
e 76 927
e 76 948
e 76 955
e 76 967
e 76 990
e 76 1000
e 77 255
e 77 263
e 77 286
e 77 313
e 77 328
e 77 334
e 77 358
e 77 369
e 77 376
e 77 405
e 77 411
e 77 417
e 77 430
e 77 432
e 77 438
e 77 439
e 77 450
e 77 486
e 77 495
e 77 496
e 77 504
e 77 516
e 77 535
e 77 570
e 77 585
e 77 592
e 77 595
e 77 619
e 77 623
e 77 644
e 77 650
e 77 655
e 77 663
e 77 666
e 77 669
e 77 675
e 77 678
e 77 685
e 77 690
e 77 691
e 77 716
e 77 721
e 77 722
e 77 733
e 77 737
e 77 747
e 77 771
e 77 775
e 77 777
e 77 778
e 77 779
e 77 784
e 77 790
e 77 797
e 77 810
e 77 815
e 77 827
e 77 846
e 77 871
e 77 892
e 77 917
e 77 936
e 77 939
e 77 940
e 77 942
e 77 948
e 77 954
e 77 955
e 77 965
e 77 970
e 78 257
e 78 260
e 78 291
e 78 313
e 78 317
e 78 325
e 78 343
e 78 360
e 78 370
e 78 384
e 78 385
e 78 389
e 78 398
e 78 405
e 78 418
e 78 424
e 78 438
e 78 446
e 78 454
e 78 472
e 78 482
e 78 494
e 78 497
e 78 507
e 78 510
e 78 531
e 78 532
e 78 539
e 78 552
e 78 555
e 78 601
e 78 609
e 78 614
e 78 638
e 78 661
e 78 681
e 78 698
e 78 708
e 78 719
e 78 721
e 78 732
e 78 739
e 78 746
e 78 749
e 78 751
e 78 777
e 78 778
e 78 789
e 78 794
e 78 810
e 78 813
e 78 822
e 78 823
e 78 827
e 78 828
e 78 843
e 78 851
e 78 857
e 78 860
e 78 862
e 78 864
e 78 887
e 78 898
e 78 903
e 78 905
e 78 929
e 78 934
e 78 941
e 78 959
e 78 965
e 78 980
e 79 252
e 79 264
e 79 268
e 79 269
e 79 280
e 79 286
e 79 293
e 79 304
e 79 321
e 79 322
e 79 328
e 79 341
e 79 342
e 79 347
e 79 351
e 79 355
e 79 364
e 79 384
e 79 408
e 79 442
e 79 449
e 79 452
e 79 462
e 79 465
e 79 502
e 79 510
e 79 511
e 79 521
e 79 523
e 79 542
e 79 550
e 79 560
e 79 570
e 79 577
e 79 582
e 79 589
e 79 591
e 79 599
e 79 606
e 79 623
e 79 661
e 79 673
e 79 703
e 79 778
e 79 788
e 79 789
e 79 797
e 79 798
e 79 805
e 79 811
e 79 835
e 79 843
e 79 844
e 79 851
e 79 853
e 79 867
e 79 883
e 79 888
e 79 896
e 79 941
e 79 942
e 79 956
e 79 961
e 79 976
e 79 989
e 80 252
e 80 256
e 80 259
e 80 265
e 80 270
e 80 275
e 80 277
e 80 278
e 80 290
e 80 323
e 80 329
e 80 334
e 80 341
e 80 344
e 80 355
e 80 362
e 80 381
e 80 385
e 80 392
e 80 397
e 80 403
e 80 410
e 80 412
e 80 428
e 80 429
e 80 438
e 80 459
e 80 460
e 80 461
e 80 463
e 80 464
e 80 472
e 80 473
e 80 489
e 80 498
e 80 505
e 80 513
e 80 527
e 80 534
e 80 541
e 80 555
e 80 578
e 80 609
e 80 614
e 80 620
e 80 629
e 80 634
e 80 636
e 80 640
e 80 644
e 80 651
e 80 653
e 80 695
e 80 699
e 80 700
e 80 701
e 80 722
e 80 725
e 80 741
e 80 746
e 80 747
e 80 749
e 80 750
e 80 772
e 80 773
e 80 778
e 80 802
e 80 803
e 80 809
e 80 819
e 80 825
e 80 835
e 80 852
e 80 860
e 80 882
e 80 888
e 80 890
e 80 898
e 80 901
e 80 908
e 80 909
e 80 910
e 80 912
e 80 922
e 80 949
e 80 975
e 80 984
e 81 253
e 81 262
e 81 277
e 81 280
e 81 298
e 81 302
e 81 306
e 81 310
e 81 316
e 81 319
e 81 332
e 81 345
e 81 349
e 81 352
e 81 358
e 81 364
e 81 369
e 81 376
e 81 386
e 81 387
e 81 408
e 81 424
e 81 425
e 81 434
e 81 435
e 81 447
e 81 484
e 81 499
e 81 501
e 81 505
e 81 509
e 81 531
e 81 546
e 81 564
e 81 574
e 81 577
e 81 579
e 81 590
e 81 597
e 81 606
e 81 615
e 81 636
e 81 637
e 81 649
e 81 689
e 81 690
e 81 696
e 81 723
e 81 732
e 81 745
e 81 755
e 81 757
e 81 768
e 81 777
e 81 785
e 81 798
e 81 808
e 81 816
e 81 829
e 81 839
e 81 840
e 81 841
e 81 852
e 81 865
e 81 880
e 81 885
e 81 895
e 81 897
e 81 903
e 81 914
e 81 921
e 81 930
e 81 946
e 81 954
e 81 996
e 81 999
e 82 269
e 82 292
e 82 293
e 82 305
e 82 309
e 82 318
e 82 326
e 82 328
e 82 341
e 82 352
e 82 353
e 82 357
e 82 373
e 82 375
e 82 389
e 82 390
e 82 391
e 82 401
e 82 413
e 82 415
e 82 427
e 82 443
e 82 444
e 82 445
e 82 454
e 82 465
e 82 471
e 82 472
e 82 496
e 82 498
e 82 500
e 82 545
e 82 577
e 82 591
e 82 592
e 82 600
e 82 602
e 82 612
e 82 613
e 82 624
e 82 635
e 82 644
e 82 660
e 82 662
e 82 680
e 82 691
e 82 693
e 82 694
e 82 701
e 82 702
e 82 715
e 82 719
e 82 720
e 82 735
e 82 758
e 82 764
e 82 771
e 82 773
e 82 784
e 82 792
e 82 796
e 82 809
e 82 821
e 82 849
e 82 855
e 82 867
e 82 869
e 82 883
e 82 898
e 82 906
e 82 913
e 82 925
e 82 938
e 82 946
e 82 948
e 82 952
e 82 956
e 82 970
e 82 971
e 82 991
e 82 998
e 83 252
e 83 287
e 83 290
e 83 294
e 83 311
e 83 324
e 83 333
e 83 338
e 83 340
e 83 356
e 83 366
e 83 373
e 83 374
e 83 388
e 83 390
e 83 395
e 83 399
e 83 411
e 83 419
e 83 431
e 83 450
e 83 451
e 83 462
e 83 491
e 83 517
e 83 533
e 83 581
e 83 590
e 83 593
e 83 605
e 83 621
e 83 625
e 83 643
e 83 646
e 83 656
e 83 689
e 83 703
e 83 707
e 83 739
e 83 755
e 83 760
e 83 780
e 83 784
e 83 790
e 83 795
e 83 797
e 83 806
e 83 808
e 83 809
e 83 810
e 83 826
e 83 838
e 83 841
e 83 855
e 83 867
e 83 876
e 83 877
e 83 890
e 83 892
e 83 916
e 83 940
e 83 946
e 83 952
e 83 958
e 83 960
e 83 962
e 83 970
e 83 988
e 84 253
e 84 274
e 84 285
e 84 304
e 84 340
e 84 350
e 84 358
e 84 363
e 84 384
e 84 386
e 84 398
e 84 404
e 84 412
e 84 413
e 84 449
e 84 450
e 84 454
e 84 462
e 84 476
e 84 489
e 84 493
e 84 504
e 84 505
e 84 511
e 84 522
e 84 527
e 84 533
e 84 541
e 84 543
e 84 545
e 84 559
e 84 570
e 84 577
e 84 583
e 84 596
e 84 620
e 84 621
e 84 632
e 84 649
e 84 650
e 84 656
e 84 660
e 84 666
e 84 671
e 84 672
e 84 680
e 84 682
e 84 687
e 84 700
e 84 708
e 84 745
e 84 751
e 84 758
e 84 761
e 84 771
e 84 829
e 84 846
e 84 848
e 84 874
e 84 877
e 84 880
e 84 889
e 84 890
e 84 930
e 84 933
e 84 945
e 84 951
e 84 972
e 84 973
e 84 974
e 84 984
e 84 988
e 84 989
e 84 995
e 85 263
e 85 266
e 85 293
e 85 302
e 85 313
e 85 316
e 85 319
e 85 322
e 85 331
e 85 332
e 85 335
e 85 343
e 85 351
e 85 370
e 85 372
e 85 373
e 85 375
e 85 380
e 85 381
e 85 385
e 85 386
e 85 395
e 85 402
e 85 404
e 85 409
e 85 420
e 85 433
e 85 438
e 85 451
e 85 463
e 85 464
e 85 465
e 85 475
e 85 480
e 85 482
e 85 506
e 85 518
e 85 523
e 85 541
e 85 548
e 85 552
e 85 553
e 85 560
e 85 563
e 85 580
e 85 604
e 85 620
e 85 636
e 85 644
e 85 659
e 85 669
e 85 688
e 85 693
e 85 700
e 85 717
e 85 721
e 85 723
e 85 724
e 85 737
e 85 749
e 85 767
e 85 770
e 85 793
e 85 804
e 85 808
e 85 810
e 85 831
e 85 836
e 85 845
e 85 866
e 85 876
e 85 890
e 85 891
e 85 893
e 85 906
e 85 907
e 85 910
e 85 924
e 85 925
e 85 944
e 85 956
e 85 968
e 85 974
e 85 990
e 85 995
e 86 261
e 86 263
e 86 266
e 86 268
e 86 272
e 86 290
e 86 316
e 86 323
e 86 345
e 86 353
e 86 355
e 86 358
e 86 385
e 86 386
e 86 396
e 86 423
e 86 441
e 86 446
e 86 469
e 86 472
e 86 475
e 86 486
e 86 490
e 86 496
e 86 506
e 86 536
e 86 546
e 86 549
e 86 551
e 86 553
e 86 557
e 86 559
e 86 564
e 86 580
e 86 583
e 86 598
e 86 611
e 86 617
e 86 626
e 86 642
e 86 655
e 86 656
e 86 664
e 86 665
e 86 667
e 86 670
e 86 692
e 86 705
e 86 726
e 86 727
e 86 729
e 86 730
e 86 740
e 86 745
e 86 754
e 86 761
e 86 762
e 86 785
e 86 789
e 86 790
e 86 807
e 86 827
e 86 832
e 86 850
e 86 883
e 86 884
e 86 898
e 86 908
e 86 910
e 86 916
e 86 921
e 86 935
e 86 940
e 86 948
e 86 949
e 86 963
e 86 970
e 86 984
e 87 255
e 87 269
e 87 275
e 87 291
e 87 295
e 87 314
e 87 317
e 87 318
e 87 319
e 87 328
e 87 348
e 87 352
e 87 366
e 87 370
e 87 371
e 87 373
e 87 385
e 87 389
e 87 392
e 87 414
e 87 419
e 87 425
e 87 427
e 87 428
e 87 434
e 87 461
e 87 465
e 87 476
e 87 484
e 87 491
e 87 503
e 87 509
e 87 517
e 87 524
e 87 539
e 87 545
e 87 546
e 87 560
e 87 577
e 87 584
e 87 592
e 87 593
e 87 594
e 87 604
e 87 616
e 87 620
e 87 638
e 87 649
e 87 651
e 87 686
e 87 730
e 87 731
e 87 735
e 87 748
e 87 751
e 87 765
e 87 770
e 87 772
e 87 776
e 87 787
e 87 799
e 87 811
e 87 819
e 87 835
e 87 843
e 87 857
e 87 877
e 87 880
e 87 916
e 87 928
e 87 932
e 87 935
e 87 958
e 87 962
e 87 978
e 87 982
e 87 989
e 87 990
e 87 996
e 88 253
e 88 269
e 88 296
e 88 297
e 88 298
e 88 299
e 88 310
e 88 341
e 88 343
e 88 359
e 88 367
e 88 375
e 88 377
e 88 383
e 88 391
e 88 405
e 88 406
e 88 426
e 88 430
e 88 433
e 88 468
e 88 478
e 88 484
e 88 487
e 88 504
e 88 510
e 88 513
e 88 523
e 88 526
e 88 533
e 88 547
e 88 553
e 88 554
e 88 558
e 88 561
e 88 567
e 88 585
e 88 588
e 88 597
e 88 606
e 88 609
e 88 610
e 88 618
e 88 621
e 88 629
e 88 658
e 88 674
e 88 687
e 88 695
e 88 700
e 88 711
e 88 716
e 88 717
e 88 718
e 88 720
e 88 727
e 88 733
e 88 735
e 88 737
e 88 742
e 88 743
e 88 754
e 88 756
e 88 783
e 88 786
e 88 799
e 88 803
e 88 825
e 88 827
e 88 832
e 88 842
e 88 851
e 88 864
e 88 870
e 88 877
e 88 885
e 88 889
e 88 899
e 88 902
e 88 906
e 88 909
e 88 928
e 88 932
e 88 936
e 88 949
e 88 951
e 88 985
e 89 264
e 89 274
e 89 294
e 89 295
e 89 296
e 89 302
e 89 306
e 89 317
e 89 328
e 89 332
e 89 350
e 89 351
e 89 354
e 89 356
e 89 365
e 89 373
e 89 395
e 89 401
e 89 407
e 89 414
e 89 421
e 89 422
e 89 442
e 89 452
e 89 458
e 89 467
e 89 493
e 89 498
e 89 500
e 89 520
e 89 528
e 89 532
e 89 560
e 89 595
e 89 596
e 89 598
e 89 601
e 89 602
e 89 615
e 89 618
e 89 630
e 89 634
e 89 635
e 89 636
e 89 643
e 89 647
e 89 648
e 89 656
e 89 660
e 89 676
e 89 677
e 89 678
e 89 681
e 89 713
e 89 715
e 89 746
e 89 758
e 89 767
e 89 789
e 89 801
e 89 808
e 89 811
e 89 820
e 89 825
e 89 854
e 89 874
e 89 893
e 89 897
e 89 914
e 89 934
e 89 958
e 89 971
e 89 975
e 89 977
e 89 988
e 90 264
e 90 265
e 90 273
e 90 283
e 90 291
e 90 295
e 90 298
e 90 303
e 90 304
e 90 313
e 90 314
e 90 318
e 90 344
e 90 350
e 90 351
e 90 357
e 90 366
e 90 370
e 90 400
e 90 411
e 90 413
e 90 443
e 90 444
e 90 449
e 90 456
e 90 457
e 90 466
e 90 483
e 90 484
e 90 492
e 90 493
e 90 499
e 90 501
e 90 506
e 90 509
e 90 514
e 90 540
e 90 552
e 90 584
e 90 592
e 90 601
e 90 632
e 90 650
e 90 678
e 90 702
e 90 704
e 90 709
e 90 725
e 90 727
e 90 731
e 90 735
e 90 741
e 90 751
e 90 754
e 90 782
e 90 791
e 90 796
e 90 797
e 90 805
e 90 814
e 90 821
e 90 825
e 90 829
e 90 830
e 90 846
e 90 860
e 90 870
e 90 889
e 90 897
e 90 913
e 90 914
e 90 923
e 90 933
e 90 953
e 90 967
e 90 972
e 90 980
e 91 252
e 91 254
e 91 260
e 91 262
e 91 271
e 91 280
e 91 305
e 91 307
e 91 314
e 91 318
e 91 328
e 91 331
e 91 333
e 91 348
e 91 355
e 91 357
e 91 363
e 91 368
e 91 375
e 91 408
e 91 410
e 91 412
e 91 418
e 91 421
e 91 424
e 91 428
e 91 440
e 91 446
e 91 449
e 91 477
e 91 480
e 91 484
e 91 490
e 91 495
e 91 517
e 91 535
e 91 543
e 91 551
e 91 554
e 91 559
e 91 571
e 91 578
e 91 593
e 91 626
e 91 629
e 91 641
e 91 645
e 91 647
e 91 650
e 91 667
e 91 681
e 91 682
e 91 686
e 91 690
e 91 714
e 91 748
e 91 761
e 91 772
e 91 776
e 91 798
e 91 801
e 91 803
e 91 825
e 91 832
e 91 836
e 91 837
e 91 857
e 91 859
e 91 886
e 91 932
e 91 938
e 91 948
e 91 963
e 91 964
e 91 966
e 91 972
e 91 975
e 91 983
e 91 992
e 92 253
e 92 269
e 92 293
e 92 297
e 92 301
e 92 312
e 92 340
e 92 345
e 92 362
e 92 375
e 92 385
e 92 392
e 92 403
e 92 409
e 92 416
e 92 423
e 92 424
e 92 446
e 92 452
e 92 455
e 92 460
e 92 463
e 92 465
e 92 477
e 92 498
e 92 499
e 92 535
e 92 560
e 92 605
e 92 611
e 92 623
e 92 635
e 92 643
e 92 646
e 92 649
e 92 662
e 92 676
e 92 679
e 92 686
e 92 690
e 92 704
e 92 717
e 92 719
e 92 724
e 92 757
e 92 775
e 92 781
e 92 784
e 92 785
e 92 806
e 92 821
e 92 830
e 92 841
e 92 845
e 92 871
e 92 901
e 92 908
e 92 929
e 92 932
e 92 935
e 92 945
e 92 961
e 92 967
e 92 973
e 92 980
e 92 998
e 93 256
e 93 267
e 93 270
e 93 272
e 93 286
e 93 293
e 93 297
e 93 299
e 93 301
e 93 303
e 93 304
e 93 326
e 93 330
e 93 334
e 93 347
e 93 357
e 93 360
e 93 362
e 93 365
e 93 392
e 93 403
e 93 411
e 93 423
e 93 428
e 93 438
e 93 439
e 93 458
e 93 462
e 93 464
e 93 473
e 93 478
e 93 490
e 93 494
e 93 509
e 93 514
e 93 525
e 93 531
e 93 548
e 93 556
e 93 560
e 93 573
e 93 574
e 93 579
e 93 586
e 93 587
e 93 589
e 93 592
e 93 615
e 93 654
e 93 658
e 93 680
e 93 706
e 93 716
e 93 718
e 93 731
e 93 767
e 93 771
e 93 781
e 93 785
e 93 790
e 93 798
e 93 829
e 93 832
e 93 837
e 93 839
e 93 844
e 93 845
e 93 855
e 93 856
e 93 868
e 93 874
e 93 875
e 93 888
e 93 900
e 93 908
e 93 930
e 93 944
e 93 959
e 93 967
e 93 969
e 93 982
e 93 984
e 93 986
e 93 992
e 93 997
e 94 299
e 94 309
e 94 335
e 94 350
e 94 377
e 94 389
e 94 393
e 94 400
e 94 402
e 94 419
e 94 424
e 94 469
e 94 481
e 94 482
e 94 487
e 94 488
e 94 492
e 94 494
e 94 499
e 94 502
e 94 526
e 94 538
e 94 547
e 94 556
e 94 562
e 94 570
e 94 583
e 94 592
e 94 593
e 94 602
e 94 610
e 94 621
e 94 625
e 94 629
e 94 630
e 94 637
e 94 638
e 94 645
e 94 650
e 94 659
e 94 668
e 94 670
e 94 679
e 94 681
e 94 690
e 94 691
e 94 694
e 94 698
e 94 699
e 94 701
e 94 705
e 94 714
e 94 728
e 94 730
e 94 736
e 94 754
e 94 760
e 94 763
e 94 776
e 94 788
e 94 796
e 94 797
e 94 804
e 94 806
e 94 812
e 94 817
e 94 823
e 94 825
e 94 833
e 94 836
e 94 840
e 94 843
e 94 849
e 94 870
e 94 878
e 94 888
e 94 890
e 94 892
e 94 897
e 94 912
e 94 914
e 94 917
e 94 941
e 94 945
e 94 947
e 94 960
e 94 968
e 94 971
e 94 981
e 94 992
e 94 995
e 94 996
e 95 259
e 95 296
e 95 304
e 95 313
e 95 328
e 95 339
e 95 341
e 95 350
e 95 355
e 95 356
e 95 365
e 95 393
e 95 403
e 95 428
e 95 434
e 95 447
e 95 473
e 95 482
e 95 498
e 95 506
e 95 509
e 95 535
e 95 542
e 95 549
e 95 550
e 95 574
e 95 575
e 95 596
e 95 597
e 95 599
e 95 603
e 95 609
e 95 614
e 95 618
e 95 633
e 95 642
e 95 644
e 95 648
e 95 652
e 95 660
e 95 669
e 95 695
e 95 700
e 95 709
e 95 732
e 95 734
e 95 760
e 95 773
e 95 780
e 95 789
e 95 794
e 95 795
e 95 812
e 95 823
e 95 836
e 95 850
e 95 862
e 95 864
e 95 887
e 95 898
e 95 911
e 95 912
e 95 921
e 95 943
e 95 955
e 95 957
e 95 963
e 95 973
e 95 986
e 95 1000
e 96 252
e 96 265
e 96 276
e 96 277
e 96 279
e 96 286
e 96 303
e 96 306
e 96 311
e 96 313
e 96 320
e 96 327
e 96 335
e 96 337
e 96 344
e 96 346
e 96 368
e 96 370
e 96 386
e 96 398
e 96 403
e 96 417
e 96 418
e 96 420
e 96 422
e 96 425
e 96 433
e 96 438
e 96 462
e 96 463
e 96 466
e 96 473
e 96 500
e 96 510
e 96 519
e 96 522
e 96 529
e 96 548
e 96 558
e 96 566
e 96 575
e 96 579
e 96 581
e 96 586
e 96 587
e 96 592
e 96 595
e 96 604
e 96 609
e 96 630
e 96 649
e 96 670
e 96 680
e 96 691
e 96 698
e 96 699
e 96 706
e 96 709
e 96 710
e 96 723
e 96 731
e 96 747
e 96 755
e 96 763
e 96 764
e 96 787
e 96 796
e 96 798
e 96 802
e 96 814
e 96 815
e 96 820
e 96 823
e 96 830
e 96 844
e 96 845
e 96 852
e 96 854
e 96 873
e 96 878
e 96 879
e 96 892
e 96 917
e 96 923
e 96 930
e 96 934
e 96 949
e 96 950
e 96 953
e 96 955
e 96 969
e 96 987
e 97 257
e 97 258
e 97 259
e 97 273
e 97 276
e 97 285
e 97 288
e 97 289
e 97 295
e 97 314
e 97 359
e 97 360
e 97 386
e 97 389
e 97 397
e 97 410
e 97 417
e 97 420
e 97 425
e 97 436
e 97 443
e 97 447
e 97 451
e 97 452
e 97 466
e 97 467
e 97 509
e 97 514
e 97 517
e 97 528
e 97 541
e 97 549
e 97 551
e 97 568
e 97 569
e 97 571
e 97 601
e 97 607
e 97 610
e 97 624
e 97 634
e 97 638
e 97 650
e 97 651
e 97 662
e 97 685
e 97 686
e 97 689
e 97 705
e 97 708
e 97 717
e 97 718
e 97 750
e 97 759
e 97 799
e 97 802
e 97 803
e 97 820
e 97 826
e 97 829
e 97 849
e 97 863
e 97 865
e 97 875
e 97 882
e 97 897
e 97 900
e 97 906
e 97 907
e 97 915
e 97 952
e 97 957
e 97 971
e 97 987
e 98 254
e 98 255
e 98 274
e 98 276
e 98 291
e 98 295
e 98 297
e 98 305
e 98 338
e 98 340
e 98 343
e 98 371
e 98 379
e 98 381
e 98 382
e 98 400
e 98 404
e 98 412
e 98 415
e 98 432
e 98 433
e 98 438
e 98 447
e 98 482
e 98 485
e 98 535
e 98 536
e 98 545
e 98 550
e 98 558
e 98 562
e 98 629
e 98 636
e 98 639
e 98 646
e 98 650
e 98 655
e 98 656
e 98 689
e 98 698
e 98 726
e 98 728
e 98 745
e 98 749
e 98 759
e 98 761
e 98 793
e 98 821
e 98 828
e 98 830
e 98 847
e 98 853
e 98 855
e 98 858
e 98 888
e 98 905
e 98 911
e 98 918
e 98 923
e 98 926
e 98 947
e 98 951
e 98 958
e 98 984
e 98 991
e 98 995
e 99 251
e 99 259
e 99 279
e 99 289
e 99 297
e 99 300
e 99 337
e 99 344
e 99 351
e 99 385
e 99 392
e 99 403
e 99 413
e 99 429
e 99 432
e 99 435
e 99 449
e 99 457
e 99 482
e 99 485
e 99 488
e 99 500
e 99 503
e 99 513
e 99 522
e 99 523
e 99 533
e 99 537
e 99 546
e 99 571
e 99 573
e 99 593
e 99 596
e 99 607
e 99 653
e 99 661
e 99 662
e 99 664
e 99 666
e 99 675
e 99 676
e 99 682
e 99 687
e 99 689
e 99 693
e 99 696
e 99 699
e 99 700
e 99 715
e 99 721
e 99 723
e 99 732
e 99 744
e 99 748
e 99 752
e 99 759
e 99 763
e 99 769
e 99 770
e 99 780
e 99 784
e 99 791
e 99 792
e 99 797
e 99 815
e 99 846
e 99 911
e 99 915
e 99 920
e 99 929
e 99 934
e 99 935
e 99 937
e 99 938
e 99 939
e 99 965
e 100 252
e 100 264
e 100 269
e 100 278
e 100 303
e 100 331
e 100 332
e 100 345
e 100 353
e 100 359
e 100 367
e 100 375
e 100 378
e 100 383
e 100 391
e 100 396
e 100 431
e 100 433
e 100 436
e 100 452
e 100 464
e 100 470
e 100 485
e 100 492
e 100 493
e 100 494
e 100 507
e 100 510
e 100 518
e 100 535
e 100 537
e 100 540
e 100 544
e 100 555
e 100 557
e 100 561
e 100 581
e 100 608
e 100 612
e 100 614
e 100 621
e 100 631
e 100 656
e 100 686
e 100 688
e 100 727
e 100 741
e 100 753
e 100 763
e 100 765
e 100 767
e 100 771
e 100 783
e 100 785
e 100 797
e 100 799
e 100 816
e 100 821
e 100 826
e 100 834
e 100 842
e 100 846
e 100 854
e 100 865
e 100 866
e 100 874
e 100 885
e 100 888
e 100 890
e 100 895
e 100 899
e 100 900
e 100 916
e 100 932
e 100 936
e 100 953
e 100 958
e 100 968
e 100 990
e 101 260
e 101 264
e 101 276
e 101 279
e 101 295
e 101 298
e 101 310
e 101 314
e 101 315
e 101 329
e 101 345
e 101 348
e 101 349
e 101 353
e 101 368
e 101 370
e 101 373
e 101 378
e 101 390
e 101 391
e 101 405
e 101 413
e 101 418
e 101 419
e 101 439
e 101 443
e 101 445
e 101 461
e 101 506
e 101 516
e 101 533
e 101 536
e 101 540
e 101 541
e 101 542
e 101 592
e 101 603
e 101 610
e 101 613
e 101 621
e 101 632
e 101 636
e 101 668
e 101 673
e 101 675
e 101 679
e 101 691
e 101 715
e 101 720
e 101 729
e 101 738
e 101 749
e 101 772
e 101 794
e 101 796
e 101 808
e 101 809
e 101 825
e 101 835
e 101 840
e 101 844
e 101 847
e 101 865
e 101 873
e 101 874
e 101 881
e 101 889
e 101 891
e 101 908
e 101 918
e 101 921
e 101 933
e 101 956
e 101 959
e 101 989
e 101 993
e 102 252
e 102 254
e 102 255
e 102 275
e 102 293
e 102 309
e 102 314
e 102 319
e 102 333
e 102 358
e 102 361
e 102 362
e 102 384
e 102 400
e 102 406
e 102 431
e 102 435
e 102 457
e 102 464
e 102 469
e 102 482
e 102 486
e 102 490
e 102 494
e 102 512
e 102 517
e 102 524
e 102 535
e 102 560
e 102 561
e 102 564
e 102 570
e 102 578
e 102 585
e 102 596
e 102 599
e 102 608
e 102 610
e 102 616
e 102 622
e 102 630
e 102 633
e 102 685
e 102 687
e 102 696
e 102 701
e 102 708
e 102 717
e 102 731
e 102 747
e 102 749
e 102 757
e 102 760
e 102 773
e 102 779
e 102 789
e 102 802
e 102 832
e 102 834
e 102 838
e 102 840
e 102 842
e 102 847
e 102 849
e 102 867
e 102 887
e 102 895
e 102 905
e 102 906
e 102 908
e 102 931
e 102 945
e 102 950
e 102 956
e 102 962
e 102 983
e 103 260
e 103 277
e 103 303
e 103 317
e 103 329
e 103 346
e 103 354
e 103 364
e 103 368
e 103 381
e 103 391
e 103 392
e 103 413
e 103 415
e 103 440
e 103 467
e 103 485
e 103 489
e 103 493
e 103 511
e 103 523
e 103 530
e 103 542
e 103 544
e 103 549
e 103 572
e 103 594
e 103 605
e 103 609
e 103 617
e 103 639
e 103 641
e 103 692
e 103 693
e 103 694
e 103 700
e 103 726
e 103 733
e 103 737
e 103 743
e 103 764
e 103 775
e 103 838
e 103 840
e 103 852
e 103 853
e 103 860
e 103 861
e 103 872
e 103 873
e 103 880
e 103 883
e 103 886
e 103 892
e 103 895
e 103 920
e 103 921
e 103 931
e 103 951
e 103 962
e 103 969
e 103 971
e 103 981
e 104 256
e 104 262
e 104 264
e 104 276
e 104 291
e 104 299
e 104 305
e 104 306
e 104 308
e 104 311
e 104 327
e 104 356
e 104 358
e 104 370
e 104 405
e 104 419
e 104 421
e 104 422
e 104 424
e 104 435
e 104 448
e 104 459
e 104 464
e 104 472
e 104 483
e 104 499
e 104 502
e 104 517
e 104 526
e 104 551
e 104 556
e 104 559
e 104 561
e 104 570
e 104 575
e 104 580
e 104 582
e 104 589
e 104 602
e 104 640
e 104 645
e 104 648
e 104 668
e 104 679
e 104 686
e 104 695
e 104 697
e 104 699
e 104 708
e 104 748
e 104 755
e 104 756
e 104 762
e 104 776
e 104 832
e 104 841
e 104 853
e 104 864
e 104 869
e 104 875
e 104 886
e 104 898
e 104 902
e 104 936
e 104 937
e 104 958
e 104 963
e 104 968
e 104 969
e 104 973
e 104 980
e 104 993
e 104 995
e 104 998
e 105 275
e 105 282
e 105 292
e 105 306
e 105 308
e 105 332
e 105 352
e 105 356
e 105 369
e 105 388
e 105 390
e 105 396
e 105 416
e 105 419
e 105 424
e 105 427
e 105 431
e 105 444
e 105 448
e 105 462
e 105 473
e 105 475
e 105 478
e 105 483
e 105 492
e 105 494
e 105 500
e 105 501
e 105 508
e 105 520
e 105 529
e 105 543
e 105 546
e 105 547
e 105 570
e 105 576
e 105 586
e 105 616
e 105 619
e 105 632
e 105 634
e 105 647
e 105 683
e 105 704
e 105 705
e 105 713
e 105 754
e 105 759
e 105 761
e 105 770
e 105 775
e 105 790
e 105 792
e 105 811
e 105 816
e 105 822
e 105 824
e 105 827
e 105 831
e 105 836
e 105 841
e 105 846
e 105 866
e 105 872
e 105 877
e 105 901
e 105 916
e 105 932
e 105 938
e 105 941
e 105 944
e 105 949
e 105 950
e 105 966
e 105 989
e 105 992
e 105 993
e 106 256
e 106 286
e 106 289
e 106 311
e 106 313
e 106 332
e 106 334
e 106 354
e 106 366
e 106 377
e 106 402
e 106 405
e 106 411
e 106 421
e 106 432
e 106 435
e 106 443
e 106 448
e 106 449
e 106 465
e 106 468
e 106 486
e 106 487
e 106 495
e 106 496
e 106 497
e 106 502
e 106 507
e 106 508
e 106 521
e 106 523
e 106 535
e 106 549
e 106 552
e 106 553
e 106 556
e 106 558
e 106 577
e 106 580
e 106 599
e 106 606
e 106 621
e 106 627
e 106 638
e 106 640
e 106 655
e 106 658
e 106 664
e 106 672
e 106 675
e 106 677
e 106 678
e 106 690
e 106 696
e 106 723
e 106 728
e 106 737
e 106 759
e 106 763
e 106 772
e 106 780
e 106 788
e 106 812
e 106 817
e 106 840
e 106 852
e 106 860
e 106 861
e 106 862
e 106 870
e 106 878
e 106 891
e 106 897
e 106 906
e 106 910
e 106 942
e 106 944
e 106 946
e 106 947
e 106 948
e 106 957
e 106 959
e 106 960
e 106 966
e 106 971
e 106 976
e 106 978
e 106 988
e 107 251
e 107 257
e 107 258
e 107 274
e 107 282
e 107 286
e 107 295
e 107 298
e 107 327
e 107 336
e 107 343
e 107 351
e 107 358
e 107 385
e 107 396
e 107 420
e 107 427
e 107 464
e 107 482
e 107 487
e 107 488
e 107 504
e 107 505
e 107 515
e 107 517
e 107 544
e 107 569
e 107 571
e 107 576
e 107 614
e 107 622
e 107 636
e 107 639
e 107 643
e 107 648
e 107 660
e 107 695
e 107 708
e 107 715
e 107 725
e 107 726
e 107 735
e 107 743
e 107 757
e 107 761
e 107 776
e 107 781
e 107 787
e 107 792
e 107 813
e 107 819
e 107 832
e 107 844
e 107 858
e 107 861
e 107 865
e 107 879
e 107 904
e 107 912
e 107 915
e 107 920
e 107 928
e 107 929
e 107 932
e 107 939
e 107 960
e 107 969
e 107 979
e 107 983
e 107 994
e 108 258
e 108 266
e 108 273
e 108 277
e 108 278
e 108 281
e 108 288
e 108 299
e 108 317
e 108 320
e 108 323
e 108 330
e 108 341
e 108 383
e 108 398
e 108 409
e 108 410
e 108 413
e 108 414
e 108 421
e 108 425
e 108 434
e 108 445
e 108 463
e 108 473
e 108 476
e 108 484
e 108 516
e 108 526
e 108 528
e 108 537
e 108 546
e 108 549
e 108 580
e 108 582
e 108 598
e 108 601
e 108 607
e 108 630
e 108 637
e 108 657
e 108 660
e 108 661
e 108 669
e 108 683
e 108 698
e 108 710
e 108 713
e 108 723
e 108 731
e 108 756
e 108 760
e 108 778
e 108 784
e 108 795
e 108 814
e 108 817
e 108 819
e 108 833
e 108 840
e 108 845
e 108 847
e 108 859
e 108 863
e 108 867
e 108 869
e 108 870
e 108 880
e 108 882
e 108 896
e 108 898
e 108 923
e 108 926
e 108 929
e 108 940
e 108 950
e 108 962
e 108 963
e 108 972
e 108 982
e 108 999
e 109 258
e 109 283
e 109 286
e 109 297
e 109 305
e 109 314
e 109 330
e 109 332
e 109 335
e 109 349
e 109 352
e 109 355
e 109 361
e 109 363
e 109 369
e 109 374
e 109 392
e 109 394
e 109 395
e 109 404
e 109 410
e 109 437
e 109 445
e 109 448
e 109 453
e 109 454
e 109 466
e 109 470
e 109 473
e 109 486
e 109 505
e 109 512
e 109 527
e 109 540
e 109 541
e 109 552
e 109 567
e 109 576
e 109 588
e 109 595
e 109 604
e 109 606
e 109 607
e 109 626
e 109 638
e 109 641
e 109 680
e 109 684
e 109 685
e 109 692
e 109 694
e 109 710
e 109 712
e 109 735
e 109 738
e 109 760
e 109 775
e 109 797
e 109 799
e 109 803
e 109 819
e 109 820
e 109 827
e 109 832
e 109 833
e 109 839
e 109 843
e 109 875
e 109 876
e 109 877
e 109 900
e 109 908
e 109 916
e 109 924
e 109 928
e 109 937
e 109 952
e 109 953
e 109 975
e 109 981
e 109 986
e 110 290
e 110 300
e 110 306
e 110 310
e 110 326
e 110 336
e 110 356
e 110 360
e 110 397
e 110 398
e 110 404
e 110 407
e 110 418
e 110 430
e 110 438
e 110 440
e 110 445
e 110 458
e 110 469
e 110 489
e 110 537
e 110 541
e 110 551
e 110 560
e 110 564
e 110 568
e 110 581
e 110 585
e 110 590
e 110 611
e 110 612
e 110 615
e 110 630
e 110 655
e 110 656
e 110 665
e 110 670
e 110 686
e 110 697
e 110 716
e 110 724
e 110 727
e 110 742
e 110 744
e 110 748
e 110 761
e 110 763
e 110 779
e 110 821
e 110 823
e 110 834
e 110 841
e 110 844
e 110 847
e 110 864
e 110 870
e 110 872
e 110 879
e 110 884
e 110 909
e 110 913
e 110 914
e 110 919
e 110 929
e 110 937
e 110 944
e 110 970
e 110 980
e 110 983
e 110 996
e 110 998
e 111 271
e 111 272
e 111 292
e 111 299
e 111 308
e 111 342
e 111 346
e 111 349
e 111 365
e 111 401
e 111 419
e 111 422
e 111 423
e 111 424
e 111 432
e 111 443
e 111 449
e 111 464
e 111 484
e 111 493
e 111 498
e 111 505
e 111 508
e 111 512
e 111 515
e 111 525
e 111 527
e 111 543
e 111 556
e 111 569
e 111 571
e 111 575
e 111 588
e 111 593
e 111 594
e 111 596
e 111 607
e 111 622
e 111 635
e 111 654
e 111 662
e 111 671
e 111 696
e 111 697
e 111 712
e 111 727
e 111 735
e 111 740
e 111 755
e 111 768
e 111 769
e 111 786
e 111 791
e 111 792
e 111 796
e 111 802
e 111 803
e 111 809
e 111 814
e 111 832
e 111 848
e 111 864
e 111 872
e 111 892
e 111 897
e 111 916
e 111 932
e 111 947
e 111 948
e 111 952
e 111 971
e 111 990
e 112 251
e 112 272
e 112 278
e 112 282
e 112 285
e 112 288
e 112 331
e 112 358
e 112 370
e 112 390
e 112 399
e 112 411
e 112 412
e 112 418
e 112 432
e 112 435
e 112 437
e 112 438
e 112 439
e 112 464
e 112 466
e 112 474
e 112 475
e 112 487
e 112 499
e 112 500
e 112 516
e 112 522
e 112 550
e 112 551
e 112 553
e 112 560
e 112 577
e 112 597
e 112 624
e 112 629
e 112 632
e 112 646
e 112 648
e 112 653
e 112 676
e 112 679
e 112 683
e 112 715
e 112 719
e 112 735
e 112 750
e 112 753
e 112 761
e 112 777
e 112 778
e 112 780
e 112 790
e 112 841
e 112 845
e 112 847
e 112 853
e 112 854
e 112 859
e 112 872
e 112 877
e 112 883
e 112 890
e 112 899
e 112 903
e 112 909
e 112 930
e 112 943
e 112 972
e 112 975
e 112 977
e 112 992
e 113 267
e 113 271
e 113 295
e 113 298
e 113 301
e 113 306
e 113 334
e 113 337
e 113 341
e 113 343
e 113 357
e 113 360
e 113 361
e 113 370
e 113 374
e 113 403
e 113 413
e 113 419
e 113 420
e 113 421
e 113 434
e 113 457
e 113 464
e 113 506
e 113 523
e 113 526
e 113 529
e 113 540
e 113 554
e 113 555
e 113 562
e 113 564
e 113 568
e 113 572
e 113 576
e 113 584
e 113 590
e 113 616
e 113 623
e 113 628
e 113 634
e 113 638
e 113 645
e 113 649
e 113 656
e 113 666
e 113 670
e 113 687
e 113 690
e 113 692
e 113 724
e 113 726
e 113 734
e 113 737
e 113 745
e 113 751
e 113 763
e 113 769
e 113 771
e 113 776
e 113 780
e 113 791
e 113 808
e 113 810
e 113 824
e 113 839
e 113 841
e 113 864
e 113 900
e 113 902
e 113 906
e 113 911
e 113 925
e 113 966
e 113 967
e 113 974
e 113 976
e 114 271
e 114 274
e 114 281
e 114 324
e 114 360
e 114 362
e 114 383
e 114 384
e 114 391
e 114 408
e 114 416
e 114 440
e 114 441
e 114 452
e 114 475
e 114 494
e 114 498
e 114 521
e 114 524
e 114 540
e 114 554
e 114 556
e 114 557
e 114 564
e 114 570
e 114 571
e 114 586
e 114 614
e 114 639
e 114 644
e 114 666
e 114 667
e 114 709
e 114 710
e 114 713
e 114 740
e 114 753
e 114 762
e 114 785
e 114 793
e 114 795
e 114 803
e 114 811
e 114 823
e 114 835
e 114 843
e 114 861
e 114 862
e 114 873
e 114 876
e 114 878
e 114 884
e 114 899
e 114 918
e 114 921
e 114 931
e 114 932
e 114 943
e 114 946
e 114 955
e 114 960
e 114 963
e 114 965
e 114 973
e 114 974
e 114 980
e 114 985
e 114 988
e 114 989
e 114 994
e 115 309
e 115 322
e 115 329
e 115 339
e 115 362
e 115 371
e 115 378
e 115 391
e 115 413
e 115 419
e 115 439
e 115 447
e 115 459
e 115 462
e 115 464
e 115 468
e 115 479
e 115 499
e 115 507
e 115 523
e 115 540
e 115 544
e 115 547
e 115 559
e 115 563
e 115 567
e 115 573
e 115 588
e 115 606
e 115 607
e 115 622
e 115 633
e 115 634
e 115 643
e 115 649
e 115 652
e 115 664
e 115 672
e 115 677
e 115 696
e 115 701
e 115 712
e 115 715
e 115 718
e 115 720
e 115 732
e 115 779
e 115 784
e 115 790
e 115 795
e 115 798
e 115 801
e 115 822
e 115 853
e 115 861
e 115 865
e 115 869
e 115 874
e 115 875
e 115 894
e 115 908
e 115 919
e 115 927
e 115 928
e 115 936
e 115 938
e 115 939
e 115 941
e 115 944
e 115 951
e 115 965
e 115 984
e 115 987
e 115 988
e 116 255
e 116 262
e 116 278
e 116 293
e 116 318
e 116 322
e 116 331
e 116 340
e 116 341
e 116 346
e 116 347
e 116 348
e 116 354
e 116 360
e 116 371
e 116 377
e 116 383
e 116 391
e 116 393
e 116 410
e 116 414
e 116 429
e 116 437
e 116 444
e 116 450
e 116 453
e 116 458
e 116 462
e 116 476
e 116 482
e 116 495
e 116 499
e 116 515
e 116 526
e 116 530
e 116 541
e 116 551
e 116 555
e 116 594
e 116 596
e 116 611
e 116 622
e 116 650
e 116 659
e 116 672
e 116 678
e 116 684
e 116 686
e 116 698
e 116 701
e 116 705
e 116 715
e 116 721
e 116 726
e 116 748
e 116 765
e 116 768
e 116 774
e 116 785
e 116 798
e 116 803
e 116 812
e 116 820
e 116 844
e 116 845
e 116 868
e 116 907
e 116 925
e 116 964
e 116 971
e 116 979
e 116 982
e 116 990
e 117 251
e 117 254
e 117 260
e 117 266
e 117 274
e 117 276
e 117 282
e 117 290
e 117 295
e 117 296
e 117 300
e 117 311
e 117 359
e 117 368
e 117 389
e 117 395
e 117 401
e 117 402
e 117 411
e 117 426
e 117 437
e 117 455
e 117 464
e 117 467
e 117 468
e 117 475
e 117 485
e 117 490
e 117 507
e 117 516
e 117 526
e 117 527
e 117 541
e 117 549
e 117 552
e 117 566
e 117 584
e 117 608
e 117 621
e 117 623
e 117 636
e 117 647
e 117 651
e 117 658
e 117 659
e 117 667
e 117 682
e 117 707
e 117 712
e 117 719
e 117 739
e 117 745
e 117 761
e 117 780
e 117 782
e 117 784
e 117 789
e 117 806
e 117 817
e 117 866
e 117 880
e 117 882
e 117 888
e 117 891
e 117 903
e 117 914
e 117 915
e 117 923
e 117 924
e 117 925
e 117 934
e 117 938
e 117 940
e 117 944
e 117 949
e 117 955
e 117 963
e 117 965
e 117 977
e 117 982
e 117 987
e 117 993
e 118 261
e 118 264
e 118 290
e 118 333
e 118 339
e 118 343
e 118 354
e 118 357
e 118 363
e 118 367
e 118 369
e 118 389
e 118 394
e 118 401
e 118 414
e 118 446
e 118 447
e 118 460
e 118 466
e 118 470
e 118 477
e 118 496
e 118 502
e 118 513
e 118 522
e 118 535
e 118 565
e 118 580
e 118 585
e 118 598
e 118 599
e 118 602
e 118 607
e 118 624
e 118 632
e 118 633
e 118 639
e 118 642
e 118 654
e 118 655
e 118 656
e 118 661
e 118 720
e 118 721
e 118 730
e 118 737
e 118 753
e 118 776
e 118 786
e 118 791
e 118 802
e 118 808
e 118 810
e 118 813
e 118 815
e 118 820
e 118 841
e 118 844
e 118 848
e 118 871
e 118 875
e 118 891
e 118 902
e 118 917
e 118 925
e 118 936
e 118 947
e 118 951
e 118 963
e 118 981
e 118 984
e 118 986
e 118 993
e 118 998
e 119 260
e 119 274
e 119 276
e 119 301
e 119 318
e 119 320
e 119 325
e 119 351
e 119 355
e 119 366
e 119 373
e 119 377
e 119 379
e 119 390
e 119 416
e 119 419
e 119 429
e 119 440
e 119 441
e 119 469
e 119 470
e 119 485
e 119 491
e 119 494
e 119 500
e 119 516
e 119 519
e 119 522
e 119 530
e 119 542
e 119 576
e 119 580
e 119 584
e 119 590
e 119 619
e 119 633
e 119 638
e 119 641
e 119 644
e 119 660
e 119 665
e 119 667
e 119 668
e 119 680
e 119 683
e 119 701
e 119 709
e 119 713
e 119 726
e 119 739
e 119 742
e 119 760
e 119 764
e 119 796
e 119 797
e 119 812
e 119 817
e 119 825
e 119 827
e 119 831
e 119 835
e 119 836
e 119 845
e 119 847
e 119 872
e 119 873
e 119 878
e 119 889
e 119 901
e 119 906
e 119 911
e 119 915
e 119 922
e 119 923
e 119 924
e 119 934
e 119 942
e 119 986
e 120 278
e 120 289
e 120 303
e 120 315
e 120 329
e 120 340
e 120 375
e 120 380
e 120 395
e 120 407
e 120 420
e 120 427
e 120 433
e 120 438
e 120 443
e 120 448
e 120 473
e 120 486
e 120 506
e 120 507
e 120 509
e 120 515
e 120 529
e 120 536
e 120 555
e 120 569
e 120 570
e 120 582
e 120 600
e 120 619
e 120 620
e 120 638
e 120 643
e 120 644
e 120 657
e 120 662
e 120 664
e 120 672
e 120 674
e 120 696
e 120 704
e 120 708
e 120 712
e 120 716
e 120 750
e 120 767
e 120 774
e 120 775
e 120 777
e 120 790
e 120 806
e 120 809
e 120 816
e 120 830
e 120 833
e 120 839
e 120 841
e 120 849
e 120 854
e 120 869
e 120 884
e 120 886
e 120 888
e 120 917
e 120 956
e 120 957
e 120 959
e 120 975
e 120 977
e 120 986
e 120 987
e 121 261
e 121 287
e 121 292
e 121 294
e 121 302
e 121 304
e 121 311
e 121 328
e 121 331
e 121 337
e 121 338
e 121 345
e 121 350
e 121 355
e 121 362
e 121 376
e 121 378
e 121 388
e 121 407
e 121 427
e 121 431
e 121 478
e 121 512
e 121 526
e 121 529
e 121 539
e 121 545
e 121 552
e 121 553
e 121 578
e 121 584
e 121 585
e 121 588
e 121 612
e 121 633
e 121 642
e 121 660
e 121 662
e 121 671
e 121 702
e 121 722
e 121 737
e 121 749
e 121 751
e 121 759
e 121 784
e 121 791
e 121 796
e 121 798
e 121 800
e 121 815
e 121 820
e 121 822
e 121 832
e 121 833
e 121 835
e 121 838
e 121 846
e 121 851
e 121 860
e 121 861
e 121 866
e 121 886
e 121 889
e 121 894
e 121 897
e 121 907
e 121 918
e 121 920
e 121 926
e 121 934
e 121 936
e 121 937
e 121 960
e 121 977
e 121 981
e 121 987
e 121 996
e 121 999
e 122 258
e 122 284
e 122 286
e 122 288
e 122 303
e 122 323
e 122 340
e 122 345
e 122 352
e 122 359
e 122 400
e 122 405
e 122 414
e 122 422
e 122 441
e 122 451
e 122 454
e 122 458
e 122 462
e 122 478
e 122 483
e 122 498
e 122 504
e 122 529
e 122 533
e 122 535
e 122 541
e 122 545
e 122 552
e 122 579
e 122 583
e 122 595
e 122 617
e 122 620
e 122 625
e 122 629
e 122 638
e 122 647
e 122 648
e 122 649
e 122 666
e 122 693
e 122 694
e 122 697
e 122 700
e 122 702
e 122 714
e 122 715
e 122 720
e 122 729
e 122 775
e 122 778
e 122 783
e 122 805
e 122 811
e 122 835
e 122 843
e 122 844
e 122 846
e 122 859
e 122 866
e 122 887
e 122 889
e 122 891
e 122 894
e 122 897
e 122 899
e 122 905
e 122 907
e 122 919
e 122 921
e 122 937
e 122 942
e 122 943
e 122 989
e 123 266
e 123 271
e 123 278
e 123 288
e 123 291
e 123 303
e 123 312
e 123 341
e 123 343
e 123 349
e 123 355
e 123 359
e 123 374
e 123 379
e 123 383
e 123 388
e 123 400
e 123 418
e 123 427
e 123 476
e 123 480
e 123 494
e 123 501
e 123 502
e 123 516
e 123 518
e 123 540
e 123 542
e 123 557
e 123 592
e 123 593
e 123 597
e 123 608
e 123 639
e 123 649
e 123 679
e 123 696
e 123 703
e 123 707
e 123 715
e 123 719
e 123 738
e 123 750
e 123 766
e 123 768
e 123 769
e 123 770
e 123 777
e 123 778
e 123 782
e 123 791
e 123 797
e 123 805
e 123 807
e 123 809
e 123 813
e 123 816
e 123 852
e 123 856
e 123 864
e 123 869
e 123 897
e 123 912
e 123 952
e 123 954
e 123 961
e 123 968
e 123 979
e 123 980
e 123 996
e 124 253
e 124 273
e 124 293
e 124 294
e 124 296
e 124 304
e 124 308
e 124 312
e 124 327
e 124 328
e 124 332
e 124 337
e 124 338
e 124 373
e 124 382
e 124 391
e 124 441
e 124 459
e 124 470
e 124 479
e 124 485
e 124 493
e 124 498
e 124 500
e 124 528
e 124 530
e 124 543
e 124 573
e 124 575
e 124 608
e 124 610
e 124 616
e 124 618
e 124 628
e 124 645
e 124 651
e 124 653
e 124 658
e 124 661
e 124 674
e 124 686
e 124 703
e 124 710
e 124 726
e 124 738
e 124 739
e 124 744
e 124 748
e 124 780
e 124 784
e 124 787
e 124 795
e 124 798
e 124 800
e 124 809
e 124 812
e 124 817
e 124 836
e 124 849
e 124 857
e 124 867
e 124 885
e 124 887
e 124 898
e 124 919
e 124 922
e 124 927
e 124 934
e 124 943
e 124 951
e 124 968
e 124 978
e 124 982
e 124 983
e 124 985
e 124 991
e 124 999
e 125 251
e 125 255
e 125 263
e 125 270
e 125 279
e 125 364
e 125 382
e 125 386
e 125 387
e 125 389
e 125 393
e 125 394
e 125 406
e 125 418
e 125 438
e 125 450
e 125 469
e 125 492
e 125 497
e 125 500
e 125 518
e 125 523
e 125 555
e 125 559
e 125 572
e 125 621
e 125 646
e 125 690
e 125 699
e 125 709
e 125 715
e 125 722
e 125 754
e 125 768
e 125 772
e 125 785
e 125 820
e 125 824
e 125 825
e 125 829
e 125 863
e 125 900
e 125 901
e 125 919
e 125 933
e 125 943
e 125 949
e 125 972
e 125 979
e 125 997
e 125 999
e 126 254
e 126 257
e 126 258
e 126 264
e 126 274
e 126 282
e 126 310
e 126 311
e 126 379
e 126 384
e 126 392
e 126 393
e 126 400
e 126 412
e 126 439
e 126 441
e 126 456
e 126 490
e 126 491
e 126 499
e 126 541
e 126 551
e 126 564
e 126 569
e 126 570
e 126 574
e 126 599
e 126 602
e 126 605
e 126 614
e 126 618
e 126 629
e 126 630
e 126 647
e 126 653
e 126 658
e 126 661
e 126 664
e 126 666
e 126 688
e 126 701
e 126 717
e 126 720
e 126 727
e 126 754
e 126 768
e 126 784
e 126 787
e 126 792
e 126 795
e 126 800
e 126 810
e 126 827
e 126 836
e 126 843
e 126 849
e 126 852
e 126 861
e 126 871
e 126 873
e 126 902
e 126 917
e 126 952
e 126 967
e 126 983
e 126 989
e 127 261
e 127 280
e 127 285
e 127 292
e 127 294
e 127 306
e 127 310
e 127 320
e 127 330
e 127 340
e 127 348
e 127 354
e 127 355
e 127 361
e 127 366
e 127 384
e 127 403
e 127 408
e 127 413
e 127 414
e 127 432
e 127 439
e 127 449
e 127 451
e 127 452
e 127 480
e 127 486
e 127 501
e 127 520
e 127 531
e 127 540
e 127 552
e 127 565
e 127 566
e 127 567
e 127 577
e 127 597
e 127 617
e 127 624
e 127 643
e 127 668
e 127 677
e 127 683
e 127 685
e 127 686
e 127 688
e 127 696
e 127 708
e 127 710
e 127 737
e 127 740
e 127 752
e 127 758
e 127 764
e 127 768
e 127 772
e 127 774
e 127 780
e 127 797
e 127 802
e 127 804
e 127 806
e 127 833
e 127 858
e 127 866
e 127 878
e 127 889
e 127 893
e 127 900
e 127 920
e 127 927
e 127 930
e 127 935
e 127 945
e 127 972
e 127 974
e 127 991
e 128 255
e 128 284
e 128 289
e 128 291
e 128 302
e 128 309
e 128 313
e 128 315
e 128 333
e 128 342
e 128 347
e 128 352
e 128 358
e 128 359
e 128 364
e 128 378
e 128 395
e 128 412
e 128 420
e 128 436
e 128 440
e 128 445
e 128 451
e 128 464
e 128 476
e 128 478
e 128 521
e 128 522
e 128 530
e 128 531
e 128 532
e 128 551
e 128 557
e 128 588
e 128 590
e 128 598
e 128 601
e 128 609
e 128 644
e 128 653
e 128 660
e 128 678
e 128 685
e 128 686
e 128 704
e 128 717
e 128 749
e 128 804
e 128 806
e 128 810
e 128 823
e 128 825
e 128 834
e 128 849
e 128 850
e 128 855
e 128 856
e 128 865
e 128 869
e 128 887
e 128 897
e 128 901
e 128 906
e 128 910
e 128 919
e 128 921
e 128 932
e 128 938
e 128 944
e 128 960
e 128 965
e 128 975
e 128 986
e 128 992
e 129 257
e 129 262
e 129 264
e 129 269
e 129 275
e 129 278
e 129 282
e 129 283
e 129 297
e 129 309
e 129 310
e 129 313
e 129 314
e 129 322
e 129 329
e 129 334
e 129 341
e 129 362
e 129 370
e 129 380
e 129 403
e 129 431
e 129 440
e 129 446
e 129 464
e 129 478
e 129 488
e 129 492
e 129 504
e 129 520
e 129 527
e 129 533
e 129 546
e 129 576
e 129 578
e 129 590
e 129 599
e 129 621
e 129 638
e 129 649
e 129 657
e 129 658
e 129 675
e 129 679
e 129 695
e 129 697
e 129 699
e 129 702
e 129 725
e 129 740
e 129 744
e 129 746
e 129 750
e 129 752
e 129 767
e 129 774
e 129 790
e 129 792
e 129 795
e 129 803
e 129 827
e 129 873
e 129 895
e 129 899
e 129 909
e 129 912
e 129 947
e 129 953
e 129 956
e 129 960
e 129 973
e 129 997
e 130 251
e 130 255
e 130 270
e 130 279
e 130 285
e 130 293
e 130 301
e 130 305
e 130 307
e 130 314
e 130 316
e 130 325
e 130 335
e 130 343
e 130 364
e 130 372
e 130 383
e 130 395
e 130 400
e 130 402
e 130 405
e 130 406
e 130 410
e 130 424
e 130 432
e 130 445
e 130 467
e 130 497
e 130 498
e 130 530
e 130 543
e 130 550
e 130 553
e 130 569
e 130 585
e 130 590
e 130 596
e 130 597
e 130 600
e 130 602
e 130 603
e 130 606
e 130 619
e 130 621
e 130 622
e 130 631
e 130 641
e 130 652
e 130 663
e 130 674
e 130 677
e 130 679
e 130 695
e 130 702
e 130 711
e 130 722
e 130 723
e 130 724
e 130 737
e 130 745
e 130 750
e 130 751
e 130 759
e 130 764
e 130 766
e 130 767
e 130 798
e 130 807
e 130 820
e 130 828
e 130 833
e 130 873
e 130 888
e 130 908
e 130 918
e 130 938
e 130 939
e 130 941
e 130 945
e 130 949
e 130 954
e 130 959
e 130 973
e 130 981
e 130 988
e 130 992
e 131 255
e 131 259
e 131 260
e 131 278
e 131 286
e 131 293
e 131 316
e 131 325
e 131 326
e 131 330
e 131 331
e 131 363
e 131 367
e 131 376
e 131 388
e 131 398
e 131 402
e 131 410
e 131 433
e 131 434
e 131 453
e 131 474
e 131 476
e 131 477
e 131 497
e 131 512
e 131 514
e 131 518
e 131 531
e 131 571
e 131 577
e 131 582
e 131 599
e 131 600
e 131 604
e 131 621
e 131 636
e 131 654
e 131 665
e 131 666
e 131 668
e 131 669
e 131 675
e 131 695
e 131 701
e 131 703
e 131 708
e 131 724
e 131 734
e 131 737
e 131 740
e 131 757
e 131 759
e 131 763
e 131 771
e 131 775
e 131 776
e 131 777
e 131 789
e 131 792
e 131 793
e 131 801
e 131 817
e 131 823
e 131 824
e 131 827
e 131 840
e 131 856
e 131 859
e 131 867
e 131 895
e 131 911
e 131 917
e 131 920
e 131 922
e 131 923
e 131 927
e 131 928
e 131 948
e 131 964
e 131 967
e 131 975
e 131 984
e 131 992
e 132 255
e 132 256
e 132 268
e 132 272
e 132 274
e 132 321
e 132 364
e 132 372
e 132 392
e 132 406
e 132 425
e 132 430
e 132 459
e 132 486
e 132 507
e 132 518
e 132 549
e 132 555
e 132 567
e 132 568
e 132 573
e 132 579
e 132 583
e 132 587
e 132 602
e 132 616
e 132 625
e 132 634
e 132 638
e 132 653
e 132 659
e 132 661
e 132 664
e 132 672
e 132 683
e 132 697
e 132 706
e 132 712
e 132 736
e 132 738
e 132 750
e 132 764
e 132 778
e 132 779
e 132 781
e 132 782
e 132 783
e 132 787
e 132 793
e 132 812
e 132 817
e 132 822
e 132 835
e 132 840
e 132 842
e 132 843
e 132 849
e 132 850
e 132 870
e 132 871
e 132 875
e 132 885
e 132 888
e 132 899
e 132 902
e 132 913
e 132 921
e 132 930
e 132 932
e 132 959
e 132 960
e 132 985
e 132 1000
e 133 269
e 133 288
e 133 291
e 133 292
e 133 300
e 133 301
e 133 304
e 133 311
e 133 319
e 133 330
e 133 332
e 133 347
e 133 350
e 133 359
e 133 360
e 133 370
e 133 387
e 133 410
e 133 418
e 133 429
e 133 434
e 133 445
e 133 452
e 133 455
e 133 464
e 133 467
e 133 507
e 133 511
e 133 512
e 133 524
e 133 528
e 133 534
e 133 539
e 133 540
e 133 550
e 133 566
e 133 572
e 133 578
e 133 589
e 133 610
e 133 617
e 133 625
e 133 628
e 133 634
e 133 644
e 133 653
e 133 654
e 133 686
e 133 696
e 133 706
e 133 710
e 133 715
e 133 716
e 133 717
e 133 738
e 133 749
e 133 750
e 133 778
e 133 796
e 133 805
e 133 808
e 133 821
e 133 824
e 133 836
e 133 840
e 133 847
e 133 872
e 133 874
e 133 879
e 133 886
e 133 892
e 133 917
e 133 944
e 133 954
e 133 964
e 133 965
e 134 259
e 134 264
e 134 269
e 134 282
e 134 315
e 134 330
e 134 338
e 134 359
e 134 366
e 134 369
e 134 371
e 134 413
e 134 421
e 134 428
e 134 469
e 134 480
e 134 487
e 134 488
e 134 523
e 134 527
e 134 536
e 134 538
e 134 565
e 134 567
e 134 570
e 134 576
e 134 607
e 134 615
e 134 619
e 134 645
e 134 648
e 134 657
e 134 679
e 134 689
e 134 704
e 134 712
e 134 718
e 134 724
e 134 726
e 134 732
e 134 741
e 134 754
e 134 771
e 134 776
e 134 783
e 134 787
e 134 793
e 134 804
e 134 811
e 134 813
e 134 826
e 134 829
e 134 832
e 134 878
e 134 883
e 134 889
e 134 894
e 134 916
e 134 919
e 134 936
e 134 959
e 134 979
e 134 987
e 134 989
e 134 1000
e 135 251
e 135 279
e 135 284
e 135 340
e 135 347
e 135 366
e 135 374
e 135 384
e 135 387
e 135 391
e 135 397
e 135 410
e 135 430
e 135 436
e 135 438
e 135 469
e 135 470
e 135 472
e 135 475
e 135 497
e 135 500
e 135 508
e 135 513
e 135 515
e 135 525
e 135 529
e 135 538
e 135 539
e 135 551
e 135 552
e 135 564
e 135 575
e 135 582
e 135 597
e 135 599
e 135 612
e 135 635
e 135 642
e 135 652
e 135 664
e 135 680
e 135 684
e 135 707
e 135 713
e 135 738
e 135 746
e 135 748
e 135 757
e 135 782
e 135 843
e 135 859
e 135 863
e 135 872
e 135 874
e 135 886
e 135 887
e 135 890
e 135 902
e 135 919
e 135 926
e 135 941
e 135 944
e 135 953
e 135 968
e 135 988
e 135 989
e 136 255
e 136 262
e 136 270
e 136 281
e 136 309
e 136 314
e 136 324
e 136 340
e 136 341
e 136 358
e 136 379
e 136 395
e 136 396
e 136 404
e 136 405
e 136 418
e 136 446
e 136 447
e 136 450
e 136 458
e 136 461
e 136 465
e 136 489
e 136 494
e 136 525
e 136 535
e 136 544
e 136 545
e 136 557
e 136 560
e 136 561
e 136 566
e 136 582
e 136 587
e 136 604
e 136 605
e 136 614
e 136 618
e 136 620
e 136 623
e 136 629
e 136 638
e 136 639
e 136 641
e 136 642
e 136 653
e 136 662
e 136 678
e 136 683
e 136 688
e 136 689
e 136 726
e 136 734
e 136 738
e 136 763
e 136 777
e 136 784
e 136 785
e 136 808
e 136 813
e 136 814
e 136 841
e 136 850
e 136 866
e 136 877
e 136 898
e 136 902
e 136 928
e 136 932
e 136 947
e 136 976
e 136 981
e 136 989
e 137 258
e 137 261
e 137 280
e 137 282
e 137 285
e 137 313
e 137 332
e 137 333
e 137 344
e 137 345
e 137 352
e 137 364
e 137 375
e 137 381
e 137 394
e 137 397
e 137 402
e 137 408
e 137 409
e 137 414
e 137 416
e 137 417
e 137 427
e 137 428
e 137 438
e 137 483
e 137 484
e 137 485
e 137 487
e 137 496
e 137 524
e 137 557
e 137 559
e 137 565
e 137 576
e 137 580
e 137 589
e 137 592
e 137 593
e 137 597
e 137 603
e 137 606
e 137 607
e 137 610
e 137 612
e 137 627
e 137 650
e 137 655
e 137 656
e 137 659
e 137 668
e 137 673
e 137 714
e 137 724
e 137 750
e 137 754
e 137 764
e 137 770
e 137 778
e 137 795
e 137 805
e 137 824
e 137 825
e 137 864
e 137 876
e 137 877
e 137 880
e 137 896
e 137 899
e 137 909
e 137 922
e 137 932
e 137 963
e 137 977
e 137 987
e 137 989
e 138 267
e 138 275
e 138 281
e 138 282
e 138 290
e 138 293
e 138 334
e 138 353
e 138 354
e 138 385
e 138 401
e 138 418
e 138 437
e 138 439
e 138 443
e 138 451
e 138 457
e 138 466
e 138 469
e 138 480
e 138 485
e 138 495
e 138 503
e 138 517
e 138 568
e 138 574
e 138 575
e 138 576
e 138 577
e 138 586
e 138 588
e 138 593
e 138 600
e 138 601
e 138 611
e 138 613
e 138 624
e 138 632
e 138 635
e 138 662
e 138 680
e 138 690
e 138 700
e 138 701
e 138 708
e 138 720
e 138 744
e 138 759
e 138 773
e 138 775
e 138 792
e 138 801
e 138 802
e 138 808
e 138 809
e 138 811
e 138 824
e 138 829
e 138 847
e 138 852
e 138 862
e 138 883
e 138 884
e 138 887
e 138 899
e 138 920
e 138 925
e 138 936
e 138 945
e 138 951
e 138 960
e 138 961
e 138 964
e 138 967
e 138 968
e 138 970
e 138 974
e 138 975
e 138 991
e 138 995
e 138 998
e 139 255
e 139 266
e 139 276
e 139 285
e 139 290
e 139 291
e 139 292
e 139 302
e 139 305
e 139 306
e 139 311
e 139 323
e 139 334
e 139 351
e 139 371
e 139 375
e 139 379
e 139 423
e 139 432
e 139 445
e 139 448
e 139 454
e 139 462
e 139 467
e 139 484
e 139 485
e 139 514
e 139 519
e 139 520
e 139 560
e 139 574
e 139 585
e 139 586
e 139 609
e 139 626
e 139 628
e 139 631
e 139 640
e 139 647
e 139 665
e 139 673
e 139 680
e 139 683
e 139 709
e 139 715
e 139 720
e 139 728
e 139 729
e 139 748
e 139 784
e 139 788
e 139 803
e 139 811
e 139 813
e 139 817
e 139 833
e 139 835
e 139 855
e 139 876
e 139 881
e 139 906
e 139 909
e 139 914
e 139 929
e 139 933
e 139 943
e 139 969
e 139 979
e 139 981
e 140 254
e 140 298
e 140 300
e 140 313
e 140 317
e 140 319
e 140 346
e 140 358
e 140 367
e 140 368
e 140 376
e 140 387
e 140 408
e 140 409
e 140 433
e 140 453
e 140 456
e 140 460
e 140 463
e 140 495
e 140 507
e 140 537
e 140 538
e 140 543
e 140 547
e 140 548
e 140 550
e 140 555
e 140 559
e 140 580
e 140 587
e 140 591
e 140 610
e 140 629
e 140 636
e 140 639
e 140 658
e 140 660
e 140 677
e 140 686
e 140 713
e 140 723
e 140 727
e 140 736
e 140 745
e 140 767
e 140 779
e 140 780
e 140 791
e 140 794
e 140 801
e 140 804
e 140 812
e 140 814
e 140 818
e 140 822
e 140 823
e 140 830
e 140 831
e 140 847
e 140 849
e 140 855
e 140 864
e 140 865
e 140 867
e 140 872
e 140 895
e 140 903
e 140 908
e 140 911
e 140 953
e 140 969
e 140 986
e 140 998
e 140 999
e 141 257
e 141 260
e 141 283
e 141 289
e 141 316
e 141 319
e 141 328
e 141 330
e 141 332
e 141 347
e 141 377
e 141 381
e 141 384
e 141 386
e 141 410
e 141 424
e 141 439
e 141 453
e 141 461
e 141 462
e 141 488
e 141 515
e 141 539
e 141 554
e 141 561
e 141 598
e 141 611
e 141 612
e 141 622
e 141 625
e 141 650
e 141 651
e 141 657
e 141 682
e 141 701
e 141 716
e 141 717
e 141 726
e 141 757
e 141 763
e 141 769
e 141 782
e 141 784
e 141 804
e 141 808
e 141 832
e 141 850
e 141 867
e 141 875
e 141 882
e 141 883
e 141 886
e 141 893
e 141 894
e 141 908
e 141 940
e 141 945
e 141 949
e 141 950
e 141 954
e 141 955
e 141 957
e 141 962
e 141 965
e 141 969
e 141 973
e 141 982
e 141 986
e 141 991
e 141 993
e 142 271
e 142 272
e 142 276
e 142 279
e 142 280
e 142 283
e 142 284
e 142 289
e 142 316
e 142 321
e 142 327
e 142 328
e 142 343
e 142 354
e 142 358
e 142 371
e 142 392
e 142 399
e 142 407
e 142 421
e 142 433
e 142 440
e 142 456
e 142 469
e 142 472
e 142 485
e 142 490
e 142 501
e 142 518
e 142 522
e 142 533
e 142 552
e 142 563
e 142 564
e 142 572
e 142 584
e 142 587
e 142 589
e 142 594
e 142 608
e 142 620
e 142 627
e 142 632
e 142 663
e 142 664
e 142 666
e 142 681
e 142 687
e 142 690
e 142 691
e 142 706
e 142 729
e 142 742
e 142 748
e 142 767
e 142 783
e 142 788
e 142 793
e 142 826
e 142 828
e 142 829
e 142 833
e 142 847
e 142 849
e 142 850
e 142 857
e 142 864
e 142 867
e 142 868
e 142 870
e 142 888
e 142 894
e 142 933
e 142 954
e 142 969
e 142 980
e 142 981
e 143 259
e 143 267
e 143 269
e 143 293
e 143 295
e 143 312
e 143 331
e 143 339
e 143 344
e 143 346
e 143 351
e 143 363
e 143 367
e 143 374
e 143 388
e 143 427
e 143 440
e 143 441
e 143 444
e 143 466
e 143 467
e 143 480
e 143 482
e 143 483
e 143 497
e 143 498
e 143 504
e 143 508
e 143 509
e 143 516
e 143 520
e 143 524
e 143 526
e 143 528
e 143 539
e 143 544
e 143 545
e 143 552
e 143 567
e 143 568
e 143 572
e 143 580
e 143 594
e 143 602
e 143 612
e 143 629
e 143 642
e 143 647
e 143 649
e 143 662
e 143 665
e 143 666
e 143 674
e 143 678
e 143 681
e 143 688
e 143 689
e 143 694
e 143 698
e 143 702
e 143 703
e 143 706
e 143 709
e 143 716
e 143 718
e 143 722
e 143 737
e 143 744
e 143 748
e 143 751
e 143 785
e 143 790
e 143 806
e 143 820
e 143 828
e 143 830
e 143 842
e 143 868
e 143 872
e 143 912
e 143 915
e 143 927
e 143 937
e 143 941
e 143 942
e 143 949
e 143 958
e 143 960
e 143 962
e 143 969
e 143 977
e 143 996
e 144 259
e 144 267
e 144 296
e 144 301
e 144 305
e 144 318
e 144 320
e 144 328
e 144 354
e 144 374
e 144 375
e 144 411
e 144 419
e 144 421
e 144 424
e 144 461
e 144 471
e 144 477
e 144 478
e 144 497
e 144 521
e 144 524
e 144 540
e 144 541
e 144 570
e 144 576
e 144 577
e 144 579
e 144 582
e 144 597
e 144 599
e 144 607
e 144 612
e 144 626
e 144 649
e 144 668
e 144 669
e 144 689
e 144 699
e 144 701
e 144 733
e 144 735
e 144 758
e 144 778
e 144 793
e 144 817
e 144 838
e 144 842
e 144 869
e 144 891
e 144 904
e 144 908
e 144 933
e 144 938
e 144 940
e 144 950
e 144 961
e 144 967
e 144 973
e 144 976
e 144 979
e 144 982
e 144 985
e 144 986
e 144 998
e 145 277
e 145 280
e 145 286
e 145 301
e 145 338
e 145 347
e 145 353
e 145 355
e 145 358
e 145 365
e 145 382
e 145 399
e 145 416
e 145 419
e 145 421
e 145 426
e 145 428
e 145 429
e 145 437
e 145 443
e 145 450
e 145 465
e 145 481
e 145 485
e 145 492
e 145 502
e 145 530
e 145 571
e 145 593
e 145 598
e 145 611
e 145 612
e 145 614
e 145 630
e 145 631
e 145 635
e 145 640
e 145 642
e 145 645
e 145 654
e 145 659
e 145 663
e 145 676
e 145 677
e 145 678
e 145 683
e 145 696
e 145 700
e 145 709
e 145 719
e 145 720
e 145 732
e 145 746
e 145 760
e 145 765
e 145 771
e 145 792
e 145 799
e 145 816
e 145 829
e 145 833
e 145 840
e 145 842
e 145 843
e 145 846
e 145 849
e 145 859
e 145 862
e 145 870
e 145 878
e 145 883
e 145 904
e 145 927
e 145 930
e 145 931
e 145 936
e 145 940
e 145 941
e 145 975
e 145 988
e 145 989
e 145 996
e 145 997
e 145 999
e 146 251
e 146 267
e 146 270
e 146 271
e 146 275
e 146 283
e 146 290
e 146 296
e 146 299
e 146 313
e 146 315
e 146 316
e 146 317
e 146 331
e 146 333
e 146 352
e 146 353
e 146 379
e 146 391
e 146 396
e 146 407
e 146 411
e 146 413
e 146 418
e 146 426
e 146 430
e 146 434
e 146 439
e 146 456
e 146 463
e 146 475
e 146 484
e 146 491
e 146 492
e 146 493
e 146 513
e 146 514
e 146 516
e 146 518
e 146 522
e 146 530
e 146 542
e 146 578
e 146 589
e 146 613
e 146 616
e 146 627
e 146 654
e 146 678
e 146 684
e 146 686
e 146 688
e 146 691
e 146 692
e 146 695
e 146 707
e 146 717
e 146 729
e 146 744
e 146 745
e 146 752
e 146 766
e 146 780
e 146 783
e 146 792
e 146 803
e 146 807
e 146 809
e 146 822
e 146 828
e 146 834
e 146 843
e 146 854
e 146 857
e 146 860
e 146 865
e 146 878
e 146 910
e 146 931
e 146 964
e 146 968
e 146 987
e 146 991
e 147 252
e 147 256
e 147 258
e 147 284
e 147 291
e 147 307
e 147 309
e 147 310
e 147 321
e 147 325
e 147 329
e 147 330
e 147 344
e 147 365
e 147 368
e 147 398
e 147 401
e 147 422
e 147 424
e 147 441
e 147 452
e 147 455
e 147 456
e 147 458
e 147 479
e 147 489
e 147 503
e 147 507
e 147 516
e 147 534
e 147 539
e 147 540
e 147 543
e 147 545
e 147 563
e 147 568
e 147 573
e 147 577
e 147 580
e 147 582
e 147 593
e 147 603
e 147 614
e 147 623
e 147 640
e 147 660
e 147 673
e 147 674
e 147 676
e 147 690
e 147 700
e 147 706
e 147 709
e 147 711
e 147 714
e 147 756
e 147 760
e 147 768
e 147 770
e 147 778
e 147 787
e 147 793
e 147 835
e 147 843
e 147 853
e 147 867
e 147 878
e 147 891
e 147 929
e 147 937
e 147 946
e 147 948
e 147 971
e 147 974
e 147 977
e 147 984
e 147 997
e 148 261
e 148 297
e 148 312
e 148 325
e 148 329
e 148 335
e 148 360
e 148 377
e 148 380
e 148 407
e 148 416
e 148 432
e 148 436
e 148 443
e 148 444
e 148 447
e 148 465
e 148 473
e 148 477
e 148 487
e 148 493
e 148 500
e 148 508
e 148 510
e 148 511
e 148 518
e 148 529
e 148 543
e 148 546
e 148 554
e 148 563
e 148 578
e 148 593
e 148 594
e 148 595
e 148 599
e 148 600
e 148 614
e 148 619
e 148 632
e 148 635
e 148 647
e 148 649
e 148 666
e 148 667
e 148 682
e 148 689
e 148 702
e 148 722
e 148 724
e 148 726
e 148 750
e 148 756
e 148 757
e 148 764
e 148 785
e 148 831
e 148 833
e 148 847
e 148 849
e 148 859
e 148 868
e 148 870
e 148 889
e 148 930
e 148 935
e 148 940
e 148 944
e 148 945
e 148 950
e 148 975
e 148 977
e 148 981
e 148 991
e 149 253
e 149 256
e 149 258
e 149 260
e 149 266
e 149 267
e 149 270
e 149 271
e 149 274
e 149 291
e 149 297
e 149 313
e 149 317
e 149 323
e 149 328
e 149 351
e 149 369
e 149 370
e 149 396
e 149 413
e 149 415
e 149 425
e 149 427
e 149 429
e 149 440
e 149 454
e 149 456
e 149 473
e 149 479
e 149 492
e 149 501
e 149 515
e 149 522
e 149 535
e 149 538
e 149 545
e 149 591
e 149 594
e 149 595
e 149 605
e 149 610
e 149 626
e 149 629
e 149 632
e 149 660
e 149 686
e 149 695
e 149 720
e 149 738
e 149 739
e 149 751
e 149 756
e 149 763
e 149 769
e 149 772
e 149 781
e 149 785
e 149 789
e 149 802
e 149 810
e 149 817
e 149 818
e 149 828
e 149 831
e 149 839
e 149 840
e 149 844
e 149 848
e 149 857
e 149 862
e 149 867
e 149 877
e 149 880
e 149 882
e 149 894
e 149 920
e 149 921
e 149 923
e 149 927
e 149 937
e 149 940
e 149 968
e 149 977
e 149 986
e 149 988
e 149 989
e 150 256
e 150 261
e 150 267
e 150 268
e 150 280
e 150 286
e 150 298
e 150 314
e 150 328
e 150 337
e 150 358
e 150 380
e 150 386
e 150 387
e 150 388
e 150 391
e 150 414
e 150 425
e 150 426
e 150 440
e 150 442
e 150 444
e 150 450
e 150 456
e 150 471
e 150 474
e 150 495
e 150 499
e 150 521
e 150 529
e 150 530
e 150 533
e 150 549
e 150 567
e 150 568
e 150 594
e 150 596
e 150 620
e 150 651
e 150 654
e 150 661
e 150 676
e 150 687
e 150 714
e 150 716
e 150 746
e 150 747
e 150 748
e 150 763
e 150 788
e 150 790
e 150 814
e 150 823
e 150 830
e 150 834
e 150 838
e 150 870
e 150 875
e 150 887
e 150 896
e 150 907
e 150 926
e 150 928
e 150 937
e 150 948
e 150 981
e 150 997
e 151 255
e 151 269
e 151 294
e 151 296
e 151 301
e 151 324
e 151 331
e 151 337
e 151 338
e 151 342
e 151 356
e 151 359
e 151 360
e 151 368
e 151 369
e 151 370
e 151 376
e 151 382
e 151 389
e 151 392
e 151 393
e 151 399
e 151 405
e 151 406
e 151 410
e 151 425
e 151 428
e 151 431
e 151 435
e 151 439
e 151 466
e 151 470
e 151 471
e 151 482
e 151 485
e 151 486
e 151 491
e 151 511
e 151 523
e 151 529
e 151 537
e 151 559
e 151 581
e 151 585
e 151 602
e 151 628
e 151 652
e 151 672
e 151 681
e 151 684
e 151 690
e 151 695
e 151 711
e 151 712
e 151 722
e 151 731
e 151 752
e 151 756
e 151 762
e 151 767
e 151 783
e 151 792
e 151 798
e 151 804
e 151 817
e 151 831
e 151 852
e 151 869
e 151 874
e 151 914
e 151 935
e 151 945
e 151 947
e 152 251
e 152 270
e 152 283
e 152 300
e 152 301
e 152 302
e 152 311
e 152 314
e 152 321
e 152 324
e 152 332
e 152 335
e 152 342
e 152 343
e 152 355
e 152 365
e 152 367
e 152 378
e 152 381
e 152 400
e 152 411
e 152 435
e 152 438
e 152 454
e 152 456
e 152 481
e 152 497
e 152 507
e 152 508
e 152 537
e 152 539
e 152 541
e 152 544
e 152 555
e 152 562
e 152 585
e 152 625
e 152 631
e 152 632
e 152 665
e 152 668
e 152 671
e 152 698
e 152 704
e 152 730
e 152 743
e 152 747
e 152 765
e 152 772
e 152 789
e 152 794
e 152 806
e 152 811
e 152 825
e 152 826
e 152 838
e 152 877
e 152 905
e 152 913
e 152 916
e 152 926
e 152 928
e 152 935
e 152 949
e 152 977
e 152 1000
e 153 260
e 153 264
e 153 269
e 153 273
e 153 278
e 153 294
e 153 308
e 153 313
e 153 329
e 153 332
e 153 339
e 153 347
e 153 348
e 153 349
e 153 350
e 153 353
e 153 376
e 153 397
e 153 402
e 153 407
e 153 410
e 153 425
e 153 434
e 153 444
e 153 449
e 153 489
e 153 495
e 153 515
e 153 517
e 153 523
e 153 536
e 153 562
e 153 565
e 153 578
e 153 589
e 153 596
e 153 600
e 153 603
e 153 609
e 153 644
e 153 649
e 153 685
e 153 716
e 153 728
e 153 729
e 153 735
e 153 737
e 153 777
e 153 782
e 153 795
e 153 807
e 153 829
e 153 836
e 153 842
e 153 860
e 153 870
e 153 888
e 153 889
e 153 891
e 153 913
e 153 917
e 153 918
e 153 922
e 153 930
e 153 936
e 153 943
e 153 970
e 153 977
e 153 982
e 153 984
e 153 992
e 153 999
e 154 254
e 154 257
e 154 260
e 154 267
e 154 268
e 154 293
e 154 303
e 154 305
e 154 306
e 154 321
e 154 325
e 154 326
e 154 336
e 154 354
e 154 374
e 154 381
e 154 391
e 154 399
e 154 411
e 154 412
e 154 437
e 154 454
e 154 459
e 154 468
e 154 497
e 154 530
e 154 541
e 154 545
e 154 561
e 154 571
e 154 573
e 154 593
e 154 604
e 154 619
e 154 644
e 154 646
e 154 652
e 154 673
e 154 680
e 154 712
e 154 724
e 154 731
e 154 749
e 154 752
e 154 777
e 154 784
e 154 792
e 154 817
e 154 838
e 154 868
e 154 889
e 154 893
e 154 898
e 154 903
e 154 909
e 154 911
e 154 913
e 154 928
e 154 958
e 154 970
e 154 974
e 154 975
e 155 262
e 155 265
e 155 279
e 155 290
e 155 297
e 155 308
e 155 316
e 155 321
e 155 355
e 155 371
e 155 372
e 155 375
e 155 380
e 155 396
e 155 397
e 155 398
e 155 401
e 155 409
e 155 421
e 155 428
e 155 453
e 155 468
e 155 480
e 155 493
e 155 510
e 155 516
e 155 527
e 155 530
e 155 555
e 155 556
e 155 588
e 155 620
e 155 633
e 155 641
e 155 644
e 155 646
e 155 659
e 155 675
e 155 689
e 155 690
e 155 734
e 155 739
e 155 740
e 155 761
e 155 775
e 155 795
e 155 812
e 155 815
e 155 834
e 155 839
e 155 841
e 155 871
e 155 879
e 155 890
e 155 893
e 155 904
e 155 913
e 155 920
e 155 923
e 155 931
e 155 942
e 155 966
e 155 967
e 155 990
e 155 993
e 156 252
e 156 261
e 156 264
e 156 276
e 156 306
e 156 307
e 156 352
e 156 382
e 156 387
e 156 397
e 156 402
e 156 410
e 156 417
e 156 422
e 156 433
e 156 434
e 156 438
e 156 441
e 156 443
e 156 450
e 156 463
e 156 477
e 156 482
e 156 489
e 156 497
e 156 506
e 156 517
e 156 519
e 156 529
e 156 536
e 156 537
e 156 543
e 156 546
e 156 548
e 156 559
e 156 569
e 156 587
e 156 596
e 156 622
e 156 624
e 156 636
e 156 652
e 156 668
e 156 681
e 156 683
e 156 699
e 156 701
e 156 707
e 156 749
e 156 750
e 156 759
e 156 766
e 156 778
e 156 787
e 156 793
e 156 816
e 156 825
e 156 827
e 156 830
e 156 833
e 156 836
e 156 851
e 156 858
e 156 860
e 156 861
e 156 867
e 156 869
e 156 873
e 156 879
e 156 888
e 156 903
e 156 916
e 156 934
e 156 935
e 156 937
e 156 979
e 156 984
e 156 997
e 157 279
e 157 282
e 157 283
e 157 291
e 157 299
e 157 310
e 157 323
e 157 326
e 157 343
e 157 355
e 157 356
e 157 358
e 157 363
e 157 366
e 157 371
e 157 394
e 157 395
e 157 421
e 157 437
e 157 439
e 157 442
e 157 445
e 157 447
e 157 465
e 157 475
e 157 480
e 157 483
e 157 486
e 157 491
e 157 492
e 157 494
e 157 507
e 157 516
e 157 517
e 157 535
e 157 537
e 157 538
e 157 540
e 157 547
e 157 552
e 157 570
e 157 581
e 157 582
e 157 593
e 157 594
e 157 609
e 157 638
e 157 640
e 157 662
e 157 684
e 157 691
e 157 698
e 157 701
e 157 710
e 157 726
e 157 739
e 157 767
e 157 771
e 157 782
e 157 788
e 157 811
e 157 819
e 157 829
e 157 836
e 157 843
e 157 858
e 157 872
e 157 901
e 157 917
e 157 954
e 157 961
e 157 966
e 157 977
e 157 979
e 157 982
e 157 999
e 158 261
e 158 266
e 158 267
e 158 271
e 158 273
e 158 274
e 158 308
e 158 311
e 158 318
e 158 326
e 158 334
e 158 353
e 158 354
e 158 365
e 158 382
e 158 390
e 158 409
e 158 412
e 158 417
e 158 438
e 158 447
e 158 448
e 158 449
e 158 453
e 158 454
e 158 456
e 158 459
e 158 484
e 158 499
e 158 504
e 158 511
e 158 515
e 158 525
e 158 530
e 158 534
e 158 558
e 158 567
e 158 574
e 158 599
e 158 606
e 158 643
e 158 653
e 158 668
e 158 693
e 158 694
e 158 695
e 158 702
e 158 715
e 158 724
e 158 731
e 158 766
e 158 767
e 158 774
e 158 777
e 158 791
e 158 796
e 158 846
e 158 855
e 158 864
e 158 882
e 158 903
e 158 907
e 158 909
e 158 923
e 158 927
e 158 928
e 158 929
e 158 954
e 158 956
e 158 960
e 158 989
e 158 991
e 158 994
e 159 271
e 159 273
e 159 289
e 159 302
e 159 305
e 159 328
e 159 329
e 159 330
e 159 332
e 159 335
e 159 345
e 159 361
e 159 376
e 159 390
e 159 411
e 159 431
e 159 437
e 159 474
e 159 508
e 159 516
e 159 518
e 159 526
e 159 535
e 159 550
e 159 554
e 159 555
e 159 557
e 159 567
e 159 570
e 159 573
e 159 581
e 159 590
e 159 595
e 159 609
e 159 637
e 159 651
e 159 673
e 159 680
e 159 687
e 159 696
e 159 698
e 159 699
e 159 704
e 159 711
e 159 721
e 159 724
e 159 735
e 159 743
e 159 749
e 159 768
e 159 782
e 159 800
e 159 805
e 159 837
e 159 838
e 159 844
e 159 872
e 159 875
e 159 887
e 159 889
e 159 934
e 159 947
e 159 948
e 159 956
e 159 968
e 159 993
e 159 997
e 159 1000
e 160 257
e 160 269
e 160 298
e 160 302
e 160 310
e 160 312
e 160 313
e 160 317
e 160 324
e 160 328
e 160 338
e 160 340
e 160 341
e 160 401
e 160 406
e 160 412
e 160 426
e 160 429
e 160 455
e 160 467
e 160 474
e 160 483
e 160 504
e 160 506
e 160 564
e 160 565
e 160 568
e 160 575
e 160 576
e 160 620
e 160 622
e 160 624
e 160 627
e 160 636
e 160 657
e 160 664
e 160 665
e 160 668
e 160 671
e 160 698
e 160 728
e 160 729
e 160 733
e 160 764
e 160 774
e 160 781
e 160 785
e 160 789
e 160 806
e 160 808
e 160 814
e 160 836
e 160 845
e 160 854
e 160 878
e 160 879
e 160 891
e 160 907
e 160 908
e 160 931
e 160 934
e 160 950
e 160 956
e 160 967
e 160 971
e 160 977
e 160 979
e 160 980
e 160 986
e 160 997
e 161 260
e 161 269
e 161 279
e 161 287
e 161 289
e 161 340
e 161 343
e 161 361
e 161 367
e 161 381
e 161 383
e 161 386
e 161 392
e 161 404
e 161 418
e 161 424
e 161 425
e 161 441
e 161 444
e 161 457
e 161 485
e 161 507
e 161 514
e 161 517
e 161 519
e 161 523
e 161 534
e 161 536
e 161 553
e 161 559
e 161 560
e 161 567
e 161 569
e 161 572
e 161 573
e 161 578
e 161 584
e 161 585
e 161 591
e 161 613
e 161 626
e 161 649
e 161 672
e 161 676
e 161 681
e 161 686
e 161 700
e 161 713
e 161 715
e 161 732
e 161 739
e 161 742
e 161 751
e 161 782
e 161 783
e 161 787
e 161 795
e 161 807
e 161 808
e 161 810
e 161 811
e 161 819
e 161 823
e 161 836
e 161 845
e 161 889
e 161 903
e 161 908
e 161 909
e 161 947
e 161 948
e 161 950
e 161 951
e 161 976
e 161 978
e 161 996
e 161 1000
e 162 291
e 162 328
e 162 347
e 162 380
e 162 381
e 162 401
e 162 402
e 162 403
e 162 406
e 162 408
e 162 443
e 162 445
e 162 472
e 162 476
e 162 486
e 162 510
e 162 511
e 162 512
e 162 517
e 162 554
e 162 564
e 162 587
e 162 608
e 162 613
e 162 641
e 162 648
e 162 679
e 162 682
e 162 685
e 162 689
e 162 696
e 162 700
e 162 723
e 162 744
e 162 784
e 162 810
e 162 815
e 162 835
e 162 857
e 162 863
e 162 864
e 162 896
e 162 908
e 162 911
e 162 918
e 162 919
e 162 931
e 162 936
e 162 938
e 162 949
e 162 951
e 162 963
e 162 986
e 162 987
e 162 996
e 163 257
e 163 260
e 163 277
e 163 279
e 163 286
e 163 292
e 163 298
e 163 310
e 163 312
e 163 314
e 163 335
e 163 339
e 163 343
e 163 359
e 163 372
e 163 373
e 163 389
e 163 392
e 163 436
e 163 457
e 163 460
e 163 464
e 163 467
e 163 468
e 163 488
e 163 523
e 163 531
e 163 550
e 163 554
e 163 563
e 163 575
e 163 588
e 163 589
e 163 604
e 163 613
e 163 621
e 163 628
e 163 641
e 163 672
e 163 674
e 163 676
e 163 684
e 163 688
e 163 689
e 163 691
e 163 692
e 163 698
e 163 702
e 163 703
e 163 708
e 163 719
e 163 735
e 163 774
e 163 796
e 163 799
e 163 819
e 163 836
e 163 839
e 163 840
e 163 841
e 163 853
e 163 861
e 163 862
e 163 863
e 163 866
e 163 875
e 163 890
e 163 906
e 163 910
e 163 925
e 163 943
e 163 947
e 163 965
e 163 975
e 163 993
e 164 260
e 164 310
e 164 314
e 164 315
e 164 324
e 164 328
e 164 350
e 164 351
e 164 356
e 164 357
e 164 363
e 164 394
e 164 438
e 164 453
e 164 462
e 164 470
e 164 474
e 164 476
e 164 481
e 164 485
e 164 528
e 164 540
e 164 542
e 164 544
e 164 555
e 164 562
e 164 567
e 164 576
e 164 584
e 164 594
e 164 602
e 164 633
e 164 640
e 164 644
e 164 649
e 164 651
e 164 657
e 164 666
e 164 683
e 164 702
e 164 706
e 164 712
e 164 733
e 164 747
e 164 752
e 164 756
e 164 767
e 164 772
e 164 775
e 164 807
e 164 813
e 164 817
e 164 835
e 164 837
e 164 876
e 164 903
e 164 913
e 164 947
e 164 956
e 164 958
e 164 963
e 164 984
e 164 995
e 165 258
e 165 272
e 165 316
e 165 319
e 165 321
e 165 344
e 165 347
e 165 352
e 165 374
e 165 375
e 165 377
e 165 396
e 165 409
e 165 410
e 165 414
e 165 431
e 165 441
e 165 445
e 165 447
e 165 464
e 165 466
e 165 494
e 165 498
e 165 504
e 165 512
e 165 521
e 165 523
e 165 527
e 165 534
e 165 585
e 165 587
e 165 595
e 165 601
e 165 606
e 165 610
e 165 611
e 165 614
e 165 617
e 165 630
e 165 633
e 165 644
e 165 645
e 165 650
e 165 673
e 165 687
e 165 695
e 165 704
e 165 707
e 165 714
e 165 734
e 165 751
e 165 753
e 165 755
e 165 757
e 165 760
e 165 768
e 165 809
e 165 830
e 165 832
e 165 837
e 165 838
e 165 844
e 165 855
e 165 860
e 165 862
e 165 865
e 165 877
e 165 878
e 165 884
e 165 894
e 165 919
e 165 933
e 165 948
e 165 956
e 165 959
e 165 984
e 165 988
e 166 254
e 166 259
e 166 279
e 166 286
e 166 289
e 166 291
e 166 295
e 166 302
e 166 335
e 166 339
e 166 345
e 166 355
e 166 375
e 166 397
e 166 401
e 166 402
e 166 415
e 166 424
e 166 460
e 166 468
e 166 470
e 166 472
e 166 522
e 166 538
e 166 541
e 166 557
e 166 571
e 166 589
e 166 597
e 166 610
e 166 628
e 166 631
e 166 635
e 166 646
e 166 676
e 166 678
e 166 686
e 166 704
e 166 709
e 166 717
e 166 718
e 166 731
e 166 736
e 166 742
e 166 743
e 166 745
e 166 754
e 166 755
e 166 779
e 166 781
e 166 854
e 166 859
e 166 875
e 166 876
e 166 889
e 166 898
e 166 911
e 166 912
e 166 928
e 166 929
e 166 930
e 166 945
e 166 948
e 166 973
e 166 974
e 166 977
e 166 978
e 166 999
e 167 252
e 167 259
e 167 262
e 167 274
e 167 283
e 167 308
e 167 315
e 167 331
e 167 339
e 167 363
e 167 370
e 167 372
e 167 401
e 167 402
e 167 405
e 167 418
e 167 437
e 167 456
e 167 464
e 167 476
e 167 489
e 167 501
e 167 504
e 167 509
e 167 519
e 167 527
e 167 530
e 167 532
e 167 575
e 167 588
e 167 591
e 167 592
e 167 596
e 167 601
e 167 602
e 167 607
e 167 622
e 167 630
e 167 631
e 167 633
e 167 637
e 167 662
e 167 670
e 167 675
e 167 701
e 167 706
e 167 710
e 167 711
e 167 714
e 167 742
e 167 752
e 167 755
e 167 758
e 167 759
e 167 763
e 167 812
e 167 820
e 167 822
e 167 824
e 167 827
e 167 836
e 167 842
e 167 846
e 167 847
e 167 858
e 167 859
e 167 861
e 167 864
e 167 866
e 167 870
e 167 874
e 167 881
e 167 882
e 167 899
e 167 970
e 167 975
e 167 981
e 167 984
e 167 995
e 168 262
e 168 278
e 168 295
e 168 301
e 168 311
e 168 334
e 168 347
e 168 350
e 168 373
e 168 374
e 168 375
e 168 390
e 168 393
e 168 396
e 168 405
e 168 419
e 168 427
e 168 438
e 168 442
e 168 443
e 168 448
e 168 473
e 168 482
e 168 490
e 168 498
e 168 510
e 168 518
e 168 523
e 168 544
e 168 548
e 168 549
e 168 552
e 168 561
e 168 569
e 168 572
e 168 586
e 168 588
e 168 592
e 168 596
e 168 617
e 168 621
e 168 626
e 168 630
e 168 664
e 168 679
e 168 686
e 168 693
e 168 706
e 168 708
e 168 711
e 168 733
e 168 741
e 168 748
e 168 753
e 168 755
e 168 771
e 168 772
e 168 774
e 168 778
e 168 794
e 168 814
e 168 865
e 168 867
e 168 868
e 168 879
e 168 911
e 168 921
e 168 922
e 168 934
e 168 940
e 168 954
e 168 962
e 168 984
e 168 986
e 168 989
e 168 998
e 169 269
e 169 293
e 169 302
e 169 305
e 169 306
e 169 309
e 169 320
e 169 344
e 169 381
e 169 407
e 169 408
e 169 431
e 169 433
e 169 455
e 169 462
e 169 472
e 169 476
e 169 480
e 169 489
e 169 498
e 169 502
e 169 524
e 169 531
e 169 538
e 169 541
e 169 559
e 169 560
e 169 572
e 169 573
e 169 574
e 169 592
e 169 624
e 169 637
e 169 650
e 169 690
e 169 691
e 169 751
e 169 769
e 169 780
e 169 791
e 169 803
e 169 809
e 169 813
e 169 820
e 169 822
e 169 825
e 169 835
e 169 845
e 169 846
e 169 849
e 169 856
e 169 857
e 169 863
e 169 870
e 169 879
e 169 882
e 169 885
e 169 892
e 169 923
e 169 926
e 169 930
e 169 946
e 169 950
e 169 964
e 169 971
e 169 972
e 169 979
e 170 253
e 170 257
e 170 262
e 170 265
e 170 279
e 170 282
e 170 284
e 170 296
e 170 301
e 170 304
e 170 308
e 170 311
e 170 317
e 170 329
e 170 337
e 170 344
e 170 346
e 170 348
e 170 351
e 170 352
e 170 363
e 170 374
e 170 383
e 170 388
e 170 403
e 170 413
e 170 415
e 170 448
e 170 463
e 170 474
e 170 479
e 170 482
e 170 496
e 170 501
e 170 513
e 170 516
e 170 518
e 170 519
e 170 542
e 170 554
e 170 558
e 170 571
e 170 579
e 170 591
e 170 599
e 170 604
e 170 618
e 170 619
e 170 646
e 170 653
e 170 660
e 170 662
e 170 698
e 170 703
e 170 710
e 170 721
e 170 726
e 170 728
e 170 730
e 170 736
e 170 746
e 170 757
e 170 760
e 170 777
e 170 805
e 170 816
e 170 818
e 170 839
e 170 840
e 170 842
e 170 872
e 170 886
e 170 906
e 170 924
e 170 933
e 170 936
e 170 941
e 170 945
e 170 950
e 170 952
e 170 968
e 170 977
e 170 989
e 170 999
e 171 252
e 171 266
e 171 273
e 171 277
e 171 315
e 171 319
e 171 328
e 171 331
e 171 337
e 171 340
e 171 342
e 171 369
e 171 403
e 171 404
e 171 407
e 171 408
e 171 409
e 171 436
e 171 438
e 171 446
e 171 449
e 171 450
e 171 451
e 171 455
e 171 476
e 171 483
e 171 485
e 171 488
e 171 492
e 171 501
e 171 506
e 171 514
e 171 526
e 171 534
e 171 540
e 171 550
e 171 554
e 171 558
e 171 559
e 171 569
e 171 572
e 171 578
e 171 582
e 171 589
e 171 601
e 171 602
e 171 604
e 171 614
e 171 617
e 171 623
e 171 624
e 171 650
e 171 653
e 171 666
e 171 668
e 171 681
e 171 682
e 171 684
e 171 719
e 171 729
e 171 732
e 171 740
e 171 763
e 171 771
e 171 775
e 171 778
e 171 783
e 171 785
e 171 800
e 171 804
e 171 817
e 171 823
e 171 827
e 171 830
e 171 831
e 171 832
e 171 846
e 171 849
e 171 851
e 171 864
e 171 866
e 171 873
e 171 875
e 171 890
e 171 899
e 171 904
e 171 913
e 171 923
e 171 925
e 171 966
e 171 972
e 171 997
e 172 253
e 172 262
e 172 273
e 172 295
e 172 297
e 172 299
e 172 305
e 172 319
e 172 332
e 172 333
e 172 334
e 172 355
e 172 362
e 172 366
e 172 367
e 172 384
e 172 392
e 172 435
e 172 438
e 172 457
e 172 466
e 172 475
e 172 479
e 172 485
e 172 495
e 172 500
e 172 519
e 172 530
e 172 535
e 172 538
e 172 554
e 172 556
e 172 563
e 172 569
e 172 578
e 172 588
e 172 592
e 172 626
e 172 628
e 172 636
e 172 637
e 172 638
e 172 663
e 172 709
e 172 722
e 172 724
e 172 737
e 172 741
e 172 743
e 172 748
e 172 774
e 172 780
e 172 793
e 172 799
e 172 803
e 172 820
e 172 828
e 172 842
e 172 846
e 172 847
e 172 849
e 172 863
e 172 864
e 172 869
e 172 874
e 172 902
e 172 904
e 172 911
e 172 919
e 172 932
e 172 946
e 172 950
e 172 961
e 172 966
e 172 984
e 173 257
e 173 261
e 173 283
e 173 284
e 173 293
e 173 298
e 173 304
e 173 327
e 173 329
e 173 330
e 173 340
e 173 345
e 173 362
e 173 363
e 173 369
e 173 370
e 173 393
e 173 398
e 173 416
e 173 418
e 173 430
e 173 435
e 173 446
e 173 449
e 173 457
e 173 461
e 173 487
e 173 520
e 173 522
e 173 540
e 173 555
e 173 561
e 173 562
e 173 563
e 173 575
e 173 577
e 173 589
e 173 624
e 173 627
e 173 628
e 173 630
e 173 637
e 173 642
e 173 651
e 173 659
e 173 663
e 173 666
e 173 671
e 173 672
e 173 678
e 173 680
e 173 686
e 173 687
e 173 707
e 173 710
e 173 750
e 173 755
e 173 758
e 173 779
e 173 783
e 173 784
e 173 788
e 173 794
e 173 799
e 173 826
e 173 827
e 173 849
e 173 850
e 173 851
e 173 856
e 173 863
e 173 871
e 173 890
e 173 907
e 173 908
e 173 923
e 173 924
e 173 942
e 173 953
e 173 958
e 173 977
e 173 992
e 173 1000
e 174 271
e 174 276
e 174 290
e 174 294
e 174 299
e 174 309
e 174 325
e 174 334
e 174 358
e 174 359
e 174 383
e 174 387
e 174 445
e 174 447
e 174 460
e 174 462
e 174 463
e 174 486
e 174 491
e 174 523
e 174 539
e 174 552
e 174 568
e 174 576
e 174 587
e 174 591
e 174 594
e 174 599
e 174 610
e 174 611
e 174 628
e 174 643
e 174 650
e 174 651
e 174 665
e 174 677
e 174 684
e 174 691
e 174 706
e 174 711
e 174 725
e 174 727
e 174 736
e 174 739
e 174 743
e 174 746
e 174 762
e 174 773
e 174 777
e 174 778
e 174 779
e 174 780
e 174 790
e 174 804
e 174 810
e 174 816
e 174 822
e 174 835
e 174 858
e 174 872
e 174 888
e 174 893
e 174 902
e 174 913
e 174 920
e 174 925
e 174 938
e 174 940
e 174 958
e 174 960
e 174 963
e 174 971
e 174 972
e 174 984
e 175 272
e 175 289
e 175 318
e 175 341
e 175 342
e 175 354
e 175 365
e 175 369
e 175 375
e 175 390
e 175 419
e 175 421
e 175 425
e 175 434
e 175 450
e 175 459
e 175 465
e 175 471
e 175 493
e 175 496
e 175 497
e 175 500
e 175 507
e 175 508
e 175 514
e 175 544
e 175 563
e 175 566
e 175 577
e 175 602
e 175 603
e 175 660
e 175 667
e 175 668
e 175 701
e 175 706
e 175 731
e 175 744
e 175 750
e 175 777
e 175 780
e 175 781
e 175 790
e 175 849
e 175 853
e 175 855
e 175 860
e 175 871
e 175 872
e 175 880
e 175 885
e 175 896
e 175 908
e 175 909
e 175 919
e 175 931
e 175 935
e 175 945
e 175 947
e 175 960
e 175 988
e 176 264
e 176 265
e 176 270
e 176 278
e 176 284
e 176 289
e 176 328
e 176 331
e 176 342
e 176 349
e 176 354
e 176 359
e 176 370
e 176 398
e 176 404
e 176 420
e 176 428
e 176 450
e 176 468
e 176 474
e 176 475
e 176 485
e 176 495
e 176 514
e 176 531
e 176 537
e 176 538
e 176 545
e 176 575
e 176 576
e 176 585
e 176 610
e 176 612
e 176 615
e 176 624
e 176 635
e 176 636
e 176 637
e 176 641
e 176 650
e 176 656
e 176 658
e 176 660
e 176 663
e 176 672
e 176 681
e 176 689
e 176 718
e 176 726
e 176 736
e 176 767
e 176 782
e 176 787
e 176 788
e 176 790
e 176 813
e 176 822
e 176 829
e 176 841
e 176 842
e 176 843
e 176 845
e 176 849
e 176 865
e 176 906
e 176 934
e 176 936
e 176 945
e 176 949
e 176 950
e 176 954
e 176 958
e 176 965
e 176 972
e 176 981
e 176 992
e 177 255
e 177 266
e 177 307
e 177 314
e 177 327
e 177 379
e 177 381
e 177 391
e 177 395
e 177 397
e 177 400
e 177 411
e 177 423
e 177 438
e 177 444
e 177 446
e 177 447
e 177 461
e 177 463
e 177 468
e 177 473
e 177 481
e 177 483
e 177 487
e 177 489
e 177 533
e 177 550
e 177 563
e 177 572
e 177 592
e 177 596
e 177 603
e 177 614
e 177 631
e 177 638
e 177 642
e 177 644
e 177 657
e 177 683
e 177 689
e 177 722
e 177 727
e 177 730
e 177 732
e 177 746
e 177 763
e 177 764
e 177 775
e 177 777
e 177 778
e 177 788
e 177 789
e 177 790
e 177 801
e 177 803
e 177 805
e 177 819
e 177 827
e 177 857
e 177 877
e 177 880
e 177 881
e 177 888
e 177 893
e 177 898
e 177 899
e 177 902
e 177 911
e 177 938
e 177 948
e 177 957
e 177 988
e 177 997
e 178 252
e 178 254
e 178 258
e 178 279
e 178 286
e 178 304
e 178 310
e 178 339
e 178 344
e 178 370
e 178 381
e 178 388
e 178 393
e 178 394
e 178 396
e 178 401
e 178 408
e 178 443
e 178 445
e 178 455
e 178 465
e 178 480
e 178 481
e 178 489
e 178 496
e 178 498
e 178 543
e 178 555
e 178 568
e 178 577
e 178 580
e 178 582
e 178 591
e 178 604
e 178 606
e 178 614
e 178 622
e 178 635
e 178 649
e 178 660
e 178 663
e 178 664
e 178 666
e 178 667
e 178 669
e 178 672
e 178 676
e 178 687
e 178 715
e 178 724
e 178 729
e 178 733
e 178 735
e 178 747
e 178 762
e 178 783
e 178 821
e 178 837
e 178 838
e 178 847
e 178 849
e 178 851
e 178 855
e 178 857
e 178 864
e 178 865
e 178 871
e 178 876
e 178 883
e 178 884
e 178 885
e 178 894
e 178 895
e 178 911
e 178 912
e 178 913
e 178 924
e 178 932
e 178 947
e 178 970
e 178 974
e 178 979
e 178 989
e 179 265
e 179 268
e 179 273
e 179 275
e 179 288
e 179 292
e 179 306
e 179 310
e 179 354
e 179 401
e 179 406
e 179 425
e 179 427
e 179 429
e 179 451
e 179 461
e 179 465
e 179 473
e 179 474
e 179 480
e 179 486
e 179 489
e 179 510
e 179 531
e 179 542
e 179 558
e 179 578
e 179 581
e 179 582
e 179 591
e 179 607
e 179 610
e 179 631
e 179 633
e 179 634
e 179 660
e 179 665
e 179 669
e 179 670
e 179 671
e 179 674
e 179 679
e 179 691
e 179 702
e 179 710
e 179 724
e 179 739
e 179 754
e 179 761
e 179 764
e 179 773
e 179 779
e 179 787
e 179 791
e 179 804
e 179 809
e 179 823
e 179 835
e 179 845
e 179 849
e 179 850
e 179 851
e 179 854
e 179 873
e 179 883
e 179 887
e 179 891
e 179 892
e 179 903
e 179 907
e 179 920
e 179 924
e 179 927
e 179 929
e 179 936
e 179 947
e 179 962
e 179 963
e 179 967
e 179 971
e 179 974
e 179 979
e 179 993
e 179 1000
e 180 251
e 180 261
e 180 262
e 180 264
e 180 280
e 180 306
e 180 308
e 180 311
e 180 331
e 180 364
e 180 373
e 180 393
e 180 397
e 180 400
e 180 414
e 180 417
e 180 420
e 180 422
e 180 423
e 180 424
e 180 451
e 180 456
e 180 476
e 180 479
e 180 480
e 180 487
e 180 505
e 180 508
e 180 537
e 180 538
e 180 556
e 180 560
e 180 566
e 180 576
e 180 594
e 180 595
e 180 626
e 180 633
e 180 640
e 180 656
e 180 668
e 180 679
e 180 717
e 180 746
e 180 758
e 180 788
e 180 797
e 180 800
e 180 813
e 180 816
e 180 821
e 180 838
e 180 847
e 180 859
e 180 870
e 180 880
e 180 881
e 180 891
e 180 893
e 180 896
e 180 899
e 180 901
e 180 907
e 180 928
e 180 933
e 180 938
e 180 953
e 180 957
e 180 969
e 180 972
e 180 978
e 180 993
e 181 259
e 181 263
e 181 273
e 181 282
e 181 289
e 181 300
e 181 308
e 181 313
e 181 316
e 181 325
e 181 330
e 181 331
e 181 401
e 181 418
e 181 426
e 181 427
e 181 436
e 181 445
e 181 446
e 181 475
e 181 482
e 181 490
e 181 499
e 181 511
e 181 513
e 181 526
e 181 537
e 181 540
e 181 541
e 181 544
e 181 547
e 181 556
e 181 564
e 181 567
e 181 571
e 181 590
e 181 598
e 181 603
e 181 608
e 181 611
e 181 623
e 181 632
e 181 637
e 181 640
e 181 647
e 181 648
e 181 650
e 181 653
e 181 663
e 181 668
e 181 697
e 181 709
e 181 715
e 181 745
e 181 753
e 181 759
e 181 760
e 181 761
e 181 795
e 181 808
e 181 810
e 181 825
e 181 829
e 181 832
e 181 864
e 181 871
e 181 876
e 181 884
e 181 899
e 181 930
e 181 937
e 181 947
e 181 952
e 181 957
e 181 960
e 181 973
e 181 996
e 182 274
e 182 277
e 182 280
e 182 288
e 182 289
e 182 291
e 182 296
e 182 315
e 182 321
e 182 323
e 182 326
e 182 336
e 182 341
e 182 345
e 182 360
e 182 374
e 182 375
e 182 399
e 182 405
e 182 441
e 182 459
e 182 469
e 182 478
e 182 481
e 182 488
e 182 495
e 182 500
e 182 501
e 182 504
e 182 508
e 182 513
e 182 528
e 182 530
e 182 537
e 182 541
e 182 543
e 182 551
e 182 553
e 182 554
e 182 563
e 182 587
e 182 596
e 182 601
e 182 609
e 182 613
e 182 617
e 182 632
e 182 636
e 182 663
e 182 671
e 182 676
e 182 691
e 182 700
e 182 701
e 182 705
e 182 709
e 182 715
e 182 722
e 182 740
e 182 742
e 182 743
e 182 746
e 182 759
e 182 781
e 182 815
e 182 851
e 182 852
e 182 886
e 182 889
e 182 903
e 182 905
e 182 906
e 182 945
e 182 952
e 182 962
e 182 966
e 182 986
e 182 987
e 182 995
e 182 996
e 183 251
e 183 260
e 183 289
e 183 291
e 183 293
e 183 324
e 183 330
e 183 334
e 183 341
e 183 346
e 183 394
e 183 398
e 183 406
e 183 408
e 183 410
e 183 428
e 183 447
e 183 454
e 183 462
e 183 464
e 183 481
e 183 488
e 183 493
e 183 508
e 183 512
e 183 516
e 183 531
e 183 554
e 183 555
e 183 565
e 183 575
e 183 577
e 183 589
e 183 593
e 183 610
e 183 611
e 183 620
e 183 624
e 183 630
e 183 645
e 183 661
e 183 690
e 183 712
e 183 717
e 183 728
e 183 751
e 183 757
e 183 768
e 183 778
e 183 781
e 183 793
e 183 802
e 183 812
e 183 832
e 183 850
e 183 857
e 183 869
e 183 872
e 183 891
e 183 896
e 183 905
e 183 940
e 183 947
e 183 957
e 183 962
e 183 971
e 183 973
e 183 978
e 183 982
e 183 986
e 184 256
e 184 271
e 184 291
e 184 297
e 184 300
e 184 301
e 184 308
e 184 331
e 184 342
e 184 350
e 184 382
e 184 386
e 184 394
e 184 397
e 184 430
e 184 433
e 184 440
e 184 442
e 184 450
e 184 452
e 184 455
e 184 460
e 184 461
e 184 481
e 184 497
e 184 529
e 184 534
e 184 547
e 184 555
e 184 558
e 184 564
e 184 565
e 184 568
e 184 571
e 184 578
e 184 592
e 184 600
e 184 606
e 184 611
e 184 617
e 184 644
e 184 666
e 184 677
e 184 680
e 184 684
e 184 697
e 184 699
e 184 713
e 184 715
e 184 726
e 184 730
e 184 733
e 184 738
e 184 747
e 184 773
e 184 790
e 184 801
e 184 819
e 184 832
e 184 848
e 184 851
e 184 869
e 184 876
e 184 885
e 184 898
e 184 904
e 184 906
e 184 918
e 184 921
e 184 927
e 184 932
e 184 934
e 184 948
e 184 956
e 184 959
e 184 968
e 184 979
e 184 985
e 185 261
e 185 281
e 185 284
e 185 320
e 185 326
e 185 338
e 185 343
e 185 347
e 185 372
e 185 383
e 185 393
e 185 395
e 185 396
e 185 409
e 185 410
e 185 416
e 185 434
e 185 438
e 185 440
e 185 442
e 185 456
e 185 470
e 185 475
e 185 485
e 185 488
e 185 492
e 185 502
e 185 510
e 185 522
e 185 526
e 185 528
e 185 532
e 185 540
e 185 551
e 185 564
e 185 565
e 185 580
e 185 584
e 185 590
e 185 593
e 185 598
e 185 600
e 185 613
e 185 619
e 185 621
e 185 670
e 185 671
e 185 680
e 185 683
e 185 692
e 185 697
e 185 711
e 185 722
e 185 726
e 185 736
e 185 739
e 185 740
e 185 747
e 185 749
e 185 753
e 185 758
e 185 761
e 185 768
e 185 781
e 185 786
e 185 793
e 185 805
e 185 814
e 185 816
e 185 827
e 185 845
e 185 856
e 185 857
e 185 861
e 185 875
e 185 878
e 185 895
e 185 909
e 185 913
e 185 916
e 185 922
e 185 927
e 185 949
e 185 969
e 185 970
e 185 975
e 185 988
e 185 989
e 185 991
e 185 995
e 186 288
e 186 297
e 186 307
e 186 322
e 186 335
e 186 340
e 186 357
e 186 363
e 186 367
e 186 383
e 186 397
e 186 399
e 186 414
e 186 443
e 186 450
e 186 472
e 186 476
e 186 477
e 186 488
e 186 495
e 186 496
e 186 498
e 186 505
e 186 508
e 186 514
e 186 525
e 186 534
e 186 536
e 186 573
e 186 580
e 186 586
e 186 603
e 186 605
e 186 627
e 186 632
e 186 634
e 186 651
e 186 674
e 186 684
e 186 698
e 186 701
e 186 709
e 186 712
e 186 737
e 186 745
e 186 747
e 186 763
e 186 766
e 186 771
e 186 784
e 186 785
e 186 790
e 186 792
e 186 802
e 186 821
e 186 829
e 186 831
e 186 833
e 186 851
e 186 852
e 186 854
e 186 860
e 186 864
e 186 866
e 186 871
e 186 877
e 186 890
e 186 896
e 186 905
e 186 911
e 186 914
e 186 924
e 186 925
e 186 928
e 186 968
e 186 989
e 187 257
e 187 261
e 187 282
e 187 285
e 187 311
e 187 319
e 187 323
e 187 340
e 187 343
e 187 359
e 187 388
e 187 423
e 187 448
e 187 461
e 187 466
e 187 470
e 187 479
e 187 493
e 187 500
e 187 505
e 187 513
e 187 514
e 187 521
e 187 531
e 187 540
e 187 554
e 187 589
e 187 600
e 187 608
e 187 611
e 187 613
e 187 636
e 187 648
e 187 649
e 187 650
e 187 652
e 187 677
e 187 680
e 187 684
e 187 701
e 187 706
e 187 709
e 187 726
e 187 735
e 187 747
e 187 755
e 187 758
e 187 788
e 187 789
e 187 810
e 187 851
e 187 882
e 187 894
e 187 899
e 187 933
e 187 935
e 187 958
e 187 967
e 187 971
e 187 972
e 187 989
e 188 289
e 188 292
e 188 294
e 188 298
e 188 307
e 188 321
e 188 323
e 188 329
e 188 332
e 188 339
e 188 344
e 188 346
e 188 347
e 188 351
e 188 357
e 188 363
e 188 377
e 188 402
e 188 414
e 188 417
e 188 422
e 188 425
e 188 437
e 188 483
e 188 488
e 188 514
e 188 516
e 188 528
e 188 542
e 188 550
e 188 552
e 188 562
e 188 576
e 188 597
e 188 603
e 188 606
e 188 607
e 188 614
e 188 616
e 188 617
e 188 619
e 188 622
e 188 627
e 188 645
e 188 653
e 188 666
e 188 671
e 188 681
e 188 692
e 188 698
e 188 699
e 188 704
e 188 709
e 188 714
e 188 733
e 188 738
e 188 748
e 188 778
e 188 780
e 188 802
e 188 806
e 188 815
e 188 866
e 188 872
e 188 888
e 188 895
e 188 908
e 188 923
e 188 930
e 188 940
e 188 942
e 188 951
e 188 960
e 188 978
e 188 982
e 188 1000
e 189 256
e 189 280
e 189 308
e 189 311
e 189 317
e 189 320
e 189 326
e 189 338
e 189 359
e 189 363
e 189 371
e 189 375
e 189 383
e 189 384
e 189 390
e 189 394
e 189 406
e 189 416
e 189 423
e 189 425
e 189 438
e 189 464
e 189 466
e 189 476
e 189 489
e 189 510
e 189 513
e 189 517
e 189 520
e 189 521
e 189 524
e 189 528
e 189 539
e 189 553
e 189 570
e 189 584
e 189 593
e 189 598
e 189 599
e 189 600
e 189 626
e 189 631
e 189 640
e 189 652
e 189 658
e 189 664
e 189 665
e 189 668
e 189 688
e 189 709
e 189 718
e 189 722
e 189 728
e 189 736
e 189 737
e 189 747
e 189 786
e 189 792
e 189 798
e 189 813
e 189 825
e 189 830
e 189 838
e 189 847
e 189 862
e 189 863
e 189 866
e 189 872
e 189 878
e 189 880
e 189 884
e 189 894
e 189 918
e 189 919
e 189 922
e 189 927
e 189 941
e 189 956
e 189 957
e 189 989
e 190 265
e 190 268
e 190 287
e 190 289
e 190 291
e 190 298
e 190 311
e 190 349
e 190 365
e 190 375
e 190 389
e 190 412
e 190 439
e 190 463
e 190 478
e 190 483
e 190 485
e 190 493
e 190 495
e 190 499
e 190 509
e 190 529
e 190 534
e 190 535
e 190 542
e 190 553
e 190 560
e 190 587
e 190 591
e 190 603
e 190 633
e 190 635
e 190 669
e 190 677
e 190 682
e 190 685
e 190 687
e 190 696
e 190 699
e 190 727
e 190 739
e 190 763
e 190 771
e 190 796
e 190 805
e 190 806
e 190 812
e 190 846
e 190 849
e 190 855
e 190 862
e 190 864
e 190 865
e 190 866
e 190 870
e 190 871
e 190 888
e 190 890
e 190 898
e 190 916
e 190 947
e 190 950
e 190 965
e 190 984
e 190 986
e 190 1000
e 191 253
e 191 255
e 191 261
e 191 267
e 191 272
e 191 293
e 191 304
e 191 309
e 191 314
e 191 321
e 191 332
e 191 335
e 191 337
e 191 351
e 191 356
e 191 402
e 191 407
e 191 420
e 191 421
e 191 430
e 191 438
e 191 440
e 191 443
e 191 455
e 191 463
e 191 472
e 191 495
e 191 497
e 191 506
e 191 522
e 191 565
e 191 575
e 191 589
e 191 592
e 191 602
e 191 604
e 191 627
e 191 634
e 191 642
e 191 644
e 191 646
e 191 647
e 191 666
e 191 682
e 191 707
e 191 711
e 191 713
e 191 732
e 191 769
e 191 770
e 191 784
e 191 805
e 191 808
e 191 809
e 191 839
e 191 848
e 191 865
e 191 876
e 191 880
e 191 899
e 191 902
e 191 932
e 191 935
e 191 939
e 191 949
e 191 961
e 191 965
e 191 982
e 191 994
e 192 252
e 192 260
e 192 267
e 192 282
e 192 287
e 192 288
e 192 294
e 192 318
e 192 325
e 192 331
e 192 338
e 192 384
e 192 386
e 192 397
e 192 401
e 192 409
e 192 423
e 192 424
e 192 426
e 192 452
e 192 454
e 192 473
e 192 478
e 192 490
e 192 491
e 192 516
e 192 527
e 192 531
e 192 535
e 192 542
e 192 551
e 192 564
e 192 567
e 192 584
e 192 594
e 192 602
e 192 603
e 192 605
e 192 607
e 192 611
e 192 612
e 192 613
e 192 616
e 192 622
e 192 623
e 192 629
e 192 648
e 192 650
e 192 653
e 192 668
e 192 691
e 192 692
e 192 700
e 192 725
e 192 742
e 192 751
e 192 752
e 192 758
e 192 777
e 192 797
e 192 820
e 192 831
e 192 865
e 192 871
e 192 881
e 192 912
e 192 922
e 192 935
e 192 948
e 192 959
e 192 960
e 192 983
e 192 984
e 192 986
e 192 992
e 192 993
e 193 265
e 193 288
e 193 302
e 193 320
e 193 330
e 193 331
e 193 337
e 193 339
e 193 359
e 193 360
e 193 384
e 193 388
e 193 409
e 193 418
e 193 467
e 193 474
e 193 486
e 193 497
e 193 503
e 193 522
e 193 523
e 193 527
e 193 529
e 193 536
e 193 540
e 193 542
e 193 545
e 193 550
e 193 564
e 193 568
e 193 569
e 193 588
e 193 595
e 193 604
e 193 609
e 193 612
e 193 619
e 193 620
e 193 627
e 193 630
e 193 638
e 193 651
e 193 654
e 193 667
e 193 698
e 193 722
e 193 734
e 193 739
e 193 749
e 193 753
e 193 754
e 193 760
e 193 764
e 193 765
e 193 780
e 193 784
e 193 820
e 193 823
e 193 827
e 193 834
e 193 836
e 193 847
e 193 853
e 193 856
e 193 869
e 193 882
e 193 889
e 193 925
e 193 927
e 193 932
e 193 935
e 193 951
e 193 957
e 193 994
e 194 252
e 194 264
e 194 273
e 194 275
e 194 285
e 194 289
e 194 308
e 194 324
e 194 326
e 194 334
e 194 355
e 194 371
e 194 374
e 194 379
e 194 406
e 194 407
e 194 408
e 194 410
e 194 412
e 194 416
e 194 427
e 194 438
e 194 440
e 194 446
e 194 448
e 194 482
e 194 486
e 194 490
e 194 504
e 194 514
e 194 517
e 194 530
e 194 536
e 194 551
e 194 573
e 194 576
e 194 581
e 194 607
e 194 622
e 194 624
e 194 647
e 194 662
e 194 671
e 194 676
e 194 684
e 194 688
e 194 689
e 194 694
e 194 708
e 194 710
e 194 719
e 194 732
e 194 734
e 194 761
e 194 782
e 194 797
e 194 831
e 194 847
e 194 851
e 194 854
e 194 857
e 194 860
e 194 871
e 194 873
e 194 887
e 194 915
e 194 918
e 194 920
e 194 927
e 194 932
e 194 944
e 194 950
e 194 954
e 194 960
e 194 978
e 194 981
e 194 992
e 194 996
e 195 253
e 195 255
e 195 261
e 195 272
e 195 281
e 195 305
e 195 316
e 195 329
e 195 354
e 195 359
e 195 378
e 195 380
e 195 389
e 195 396
e 195 410
e 195 425
e 195 426
e 195 428
e 195 436
e 195 451
e 195 456
e 195 467
e 195 468
e 195 473
e 195 477
e 195 484
e 195 488
e 195 489
e 195 509
e 195 511
e 195 527
e 195 531
e 195 535
e 195 536
e 195 542
e 195 550
e 195 559
e 195 560
e 195 580
e 195 590
e 195 608
e 195 620
e 195 629
e 195 655
e 195 664
e 195 670
e 195 679
e 195 690
e 195 721
e 195 740
e 195 746
e 195 761
e 195 762
e 195 770
e 195 775
e 195 783
e 195 824
e 195 830
e 195 855
e 195 860
e 195 862
e 195 877
e 195 885
e 195 887
e 195 893
e 195 908
e 195 911
e 195 922
e 195 935
e 195 940
e 195 955
e 195 963
e 195 984
e 195 991
e 195 996
e 196 258
e 196 262
e 196 263
e 196 273
e 196 278
e 196 299
e 196 306
e 196 319
e 196 339
e 196 349
e 196 352
e 196 354
e 196 369
e 196 372
e 196 374
e 196 406
e 196 413
e 196 423
e 196 443
e 196 451
e 196 463
e 196 466
e 196 467
e 196 488
e 196 489
e 196 490
e 196 509
e 196 513
e 196 514
e 196 521
e 196 522
e 196 523
e 196 532
e 196 543
e 196 546
e 196 552
e 196 566
e 196 567
e 196 568
e 196 569
e 196 570
e 196 601
e 196 619
e 196 622
e 196 627
e 196 631
e 196 643
e 196 644
e 196 647
e 196 650
e 196 651
e 196 655
e 196 667
e 196 674
e 196 681
e 196 699
e 196 712
e 196 724
e 196 730
e 196 754
e 196 755
e 196 759
e 196 806
e 196 817
e 196 826
e 196 834
e 196 837
e 196 849
e 196 857
e 196 866
e 196 883
e 196 884
e 196 910
e 196 913
e 196 917
e 196 980
e 196 992
e 197 263
e 197 314
e 197 324
e 197 328
e 197 330
e 197 332
e 197 342
e 197 359
e 197 373
e 197 380
e 197 383
e 197 395
e 197 415
e 197 419
e 197 424
e 197 425
e 197 435
e 197 448
e 197 449
e 197 452
e 197 463
e 197 480
e 197 494
e 197 512
e 197 513
e 197 520
e 197 540
e 197 546
e 197 547
e 197 559
e 197 568
e 197 583
e 197 594
e 197 628
e 197 630
e 197 656
e 197 660
e 197 667
e 197 698
e 197 717
e 197 721
e 197 735
e 197 739
e 197 742
e 197 781
e 197 790
e 197 831
e 197 858
e 197 875
e 197 876
e 197 880
e 197 889
e 197 909
e 197 921
e 197 961
e 197 963
e 197 977
e 197 984
e 198 262
e 198 265
e 198 266
e 198 335
e 198 342
e 198 343
e 198 350
e 198 370
e 198 380
e 198 393
e 198 403
e 198 407
e 198 415
e 198 416
e 198 436
e 198 439
e 198 474
e 198 479
e 198 494
e 198 499
e 198 504
e 198 515
e 198 519
e 198 550
e 198 578
e 198 605
e 198 615
e 198 617
e 198 622
e 198 652
e 198 666
e 198 672
e 198 675
e 198 681
e 198 706
e 198 717
e 198 723
e 198 731
e 198 760
e 198 773
e 198 785
e 198 788
e 198 794
e 198 795
e 198 801
e 198 804
e 198 811
e 198 814
e 198 820
e 198 829
e 198 842
e 198 851
e 198 863
e 198 866
e 198 887
e 198 893
e 198 908
e 198 915
e 198 929
e 198 933
e 198 935
e 198 944
e 198 967
e 198 974
e 198 989
e 198 998
e 199 253
e 199 257
e 199 261
e 199 268
e 199 269
e 199 272
e 199 273
e 199 279
e 199 281
e 199 298
e 199 316
e 199 324
e 199 331
e 199 338
e 199 362
e 199 383
e 199 385
e 199 390
e 199 405
e 199 413
e 199 422
e 199 439
e 199 451
e 199 452
e 199 453
e 199 454
e 199 464
e 199 469
e 199 472
e 199 480
e 199 485
e 199 499
e 199 519
e 199 520
e 199 521
e 199 538
e 199 541
e 199 569
e 199 586
e 199 587
e 199 631
e 199 635
e 199 650
e 199 656
e 199 663
e 199 676
e 199 690
e 199 691
e 199 708
e 199 725
e 199 727
e 199 737
e 199 741
e 199 742
e 199 762
e 199 768
e 199 778
e 199 779
e 199 783
e 199 802
e 199 817
e 199 818
e 199 846
e 199 857
e 199 871
e 199 899
e 199 919
e 199 920
e 199 934
e 199 948
e 199 956
e 199 960
e 199 994
e 200 262
e 200 264
e 200 300
e 200 317
e 200 332
e 200 337
e 200 346
e 200 348
e 200 363
e 200 366
e 200 374
e 200 376
e 200 378
e 200 401
e 200 407
e 200 413
e 200 418
e 200 422
e 200 429
e 200 438
e 200 440
e 200 446
e 200 447
e 200 449
e 200 453
e 200 456
e 200 486
e 200 487
e 200 491
e 200 563
e 200 565
e 200 567
e 200 583
e 200 584
e 200 590
e 200 591
e 200 599
e 200 628
e 200 638
e 200 651
e 200 683
e 200 689
e 200 695
e 200 704
e 200 705
e 200 706
e 200 730
e 200 739
e 200 740
e 200 749
e 200 752
e 200 753
e 200 763
e 200 769
e 200 780
e 200 808
e 200 818
e 200 846
e 200 851
e 200 872
e 200 881
e 200 883
e 200 885
e 200 891
e 200 892
e 200 899
e 200 907
e 200 916
e 200 922
e 200 924
e 200 931
e 200 934
e 200 945
e 200 975
e 200 981
e 200 993
e 201 257
e 201 258
e 201 261
e 201 266
e 201 270
e 201 271
e 201 280
e 201 300
e 201 320
e 201 323
e 201 325
e 201 338
e 201 356
e 201 359
e 201 364
e 201 375
e 201 392
e 201 410
e 201 412
e 201 418
e 201 420
e 201 428
e 201 429
e 201 443
e 201 445
e 201 464
e 201 476
e 201 492
e 201 503
e 201 514
e 201 553
e 201 566
e 201 567
e 201 573
e 201 591
e 201 604
e 201 618
e 201 626
e 201 635
e 201 640
e 201 677
e 201 690
e 201 697
e 201 702
e 201 722
e 201 732
e 201 736
e 201 741
e 201 743
e 201 747
e 201 748
e 201 754
e 201 756
e 201 758
e 201 759
e 201 760
e 201 769
e 201 775
e 201 791
e 201 806
e 201 807
e 201 823
e 201 840
e 201 867
e 201 895
e 201 926
e 201 932
e 201 961
e 201 963
e 201 972
e 201 979
e 201 992
e 202 251
e 202 255
e 202 287
e 202 292
e 202 305
e 202 306
e 202 316
e 202 317
e 202 322
e 202 348
e 202 363
e 202 365
e 202 373
e 202 380
e 202 393
e 202 410
e 202 417
e 202 428
e 202 450
e 202 453
e 202 468
e 202 472
e 202 475
e 202 501
e 202 507
e 202 526
e 202 548
e 202 561
e 202 623
e 202 625
e 202 636
e 202 641
e 202 643
e 202 663
e 202 667
e 202 676
e 202 679
e 202 689
e 202 703
e 202 716
e 202 724
e 202 731
e 202 739
e 202 744
e 202 776
e 202 781
e 202 786
e 202 791
e 202 798
e 202 827
e 202 844
e 202 860
e 202 864
e 202 867
e 202 880
e 202 883
e 202 899
e 202 912
e 202 915
e 202 921
e 202 935
e 202 950
e 202 952
e 202 965
e 202 966
e 202 969
e 202 971
e 202 975
e 202 979
e 202 993
e 203 255
e 203 264
e 203 281
e 203 285
e 203 287
e 203 288
e 203 306
e 203 313
e 203 315
e 203 316
e 203 319
e 203 322
e 203 337
e 203 342
e 203 344
e 203 346
e 203 347
e 203 358
e 203 382
e 203 385
e 203 388
e 203 408
e 203 412
e 203 424
e 203 429
e 203 431
e 203 437
e 203 439
e 203 444
e 203 454
e 203 463
e 203 490
e 203 500
e 203 507
e 203 515
e 203 524
e 203 550
e 203 560
e 203 565
e 203 588
e 203 602
e 203 616
e 203 629
e 203 635
e 203 639
e 203 641
e 203 652
e 203 662
e 203 690
e 203 704
e 203 732
e 203 739
e 203 744
e 203 756
e 203 760
e 203 783
e 203 790
e 203 797
e 203 801
e 203 813
e 203 815
e 203 818
e 203 825
e 203 827
e 203 828
e 203 835
e 203 855
e 203 890
e 203 899
e 203 908
e 203 917
e 203 921
e 203 923
e 203 931
e 203 960
e 204 251
e 204 261
e 204 268
e 204 276
e 204 286
e 204 289
e 204 302
e 204 312
e 204 313
e 204 329
e 204 333
e 204 363
e 204 396
e 204 404
e 204 420
e 204 429
e 204 442
e 204 445
e 204 450
e 204 463
e 204 470
e 204 472
e 204 478
e 204 479
e 204 480
e 204 489
e 204 492
e 204 496
e 204 512
e 204 517
e 204 532
e 204 535
e 204 536
e 204 543
e 204 560
e 204 570
e 204 572
e 204 579
e 204 582
e 204 584
e 204 588
e 204 592
e 204 606
e 204 609
e 204 633
e 204 636
e 204 640
e 204 649
e 204 663
e 204 667
e 204 673
e 204 684
e 204 696
e 204 700
e 204 708
e 204 724
e 204 725
e 204 731
e 204 734
e 204 749
e 204 755
e 204 757
e 204 782
e 204 786
e 204 787
e 204 797
e 204 830
e 204 838
e 204 857
e 204 868
e 204 893
e 204 897
e 204 913
e 204 916
e 204 936
e 204 939
e 204 940
e 204 943
e 204 962
e 204 980
e 204 989
e 205 256
e 205 259
e 205 265
e 205 269
e 205 287
e 205 297
e 205 321
e 205 342
e 205 353
e 205 363
e 205 369
e 205 371
e 205 387
e 205 392
e 205 393
e 205 401
e 205 407
e 205 414
e 205 419
e 205 424
e 205 428
e 205 433
e 205 444
e 205 461
e 205 473
e 205 474
e 205 477
e 205 483
e 205 487
e 205 489
e 205 502
e 205 535
e 205 539
e 205 547
e 205 548
e 205 554
e 205 575
e 205 576
e 205 585
e 205 608
e 205 622
e 205 629
e 205 648
e 205 655
e 205 680
e 205 687
e 205 730
e 205 753
e 205 755
e 205 758
e 205 777
e 205 800
e 205 802
e 205 807
e 205 822
e 205 843
e 205 845
e 205 851
e 205 854
e 205 855
e 205 860
e 205 866
e 205 868
e 205 891
e 205 911
e 205 917
e 205 918
e 205 935
e 205 938
e 205 946
e 205 948
e 205 950
e 205 952
e 205 953
e 205 959
e 205 965
e 205 970
e 205 994
e 205 1000
e 206 262
e 206 266
e 206 269
e 206 275
e 206 311
e 206 316
e 206 319
e 206 322
e 206 331
e 206 345
e 206 353
e 206 360
e 206 385
e 206 392
e 206 412
e 206 420
e 206 424
e 206 431
e 206 444
e 206 452
e 206 454
e 206 455
e 206 461
e 206 467
e 206 469
e 206 486
e 206 490
e 206 492
e 206 536
e 206 541
e 206 542
e 206 546
e 206 553
e 206 586
e 206 606
e 206 626
e 206 642
e 206 644
e 206 653
e 206 657
e 206 674
e 206 676
e 206 678
e 206 682
e 206 685
e 206 689
e 206 718
e 206 719
e 206 730
e 206 750
e 206 752
e 206 769
e 206 772
e 206 792
e 206 798
e 206 799
e 206 808
e 206 824
e 206 829
e 206 834
e 206 835
e 206 849
e 206 851
e 206 867
e 206 869
e 206 872
e 206 878
e 206 889
e 206 890
e 206 896
e 206 907
e 206 908
e 206 910
e 206 915
e 206 955
e 206 957
e 206 970
e 206 971
e 206 972
e 206 999
e 207 255
e 207 268
e 207 283
e 207 285
e 207 309
e 207 310
e 207 314
e 207 333
e 207 344
e 207 345
e 207 351
e 207 355
e 207 357
e 207 372
e 207 390
e 207 399
e 207 403
e 207 418
e 207 427
e 207 437
e 207 452
e 207 456
e 207 468
e 207 472
e 207 484
e 207 500
e 207 502
e 207 511
e 207 536
e 207 554
e 207 569
e 207 575
e 207 595
e 207 609
e 207 613
e 207 638
e 207 640
e 207 644
e 207 664
e 207 668
e 207 682
e 207 692
e 207 701
e 207 705
e 207 717
e 207 722
e 207 732
e 207 754
e 207 755
e 207 760
e 207 769
e 207 801
e 207 813
e 207 814
e 207 817
e 207 821
e 207 846
e 207 862
e 207 882
e 207 884
e 207 891
e 207 894
e 207 895
e 207 914
e 207 917
e 207 923
e 207 950
e 207 951
e 207 961
e 207 962
e 207 963
e 207 972
e 207 985
e 207 991
e 208 255
e 208 264
e 208 266
e 208 282
e 208 300
e 208 303
e 208 306
e 208 316
e 208 343
e 208 350
e 208 353
e 208 362
e 208 378
e 208 396
e 208 406
e 208 415
e 208 418
e 208 428
e 208 445
e 208 459
e 208 464
e 208 478
e 208 485
e 208 494
e 208 515
e 208 539
e 208 543
e 208 552
e 208 557
e 208 559
e 208 562
e 208 564
e 208 569
e 208 570
e 208 574
e 208 577
e 208 586
e 208 591
e 208 600
e 208 603
e 208 637
e 208 649
e 208 660
e 208 666
e 208 671
e 208 676
e 208 682
e 208 685
e 208 691
e 208 695
e 208 700
e 208 712
e 208 715
e 208 716
e 208 732
e 208 733
e 208 734
e 208 737
e 208 738
e 208 752
e 208 755
e 208 787
e 208 788
e 208 790
e 208 791
e 208 792
e 208 795
e 208 819
e 208 839
e 208 847
e 208 857
e 208 861
e 208 882
e 208 894
e 208 907
e 208 909
e 208 913
e 208 920
e 208 930
e 208 936
e 208 938
e 208 940
e 208 947
e 208 955
e 208 960
e 208 971
e 208 972
e 208 983
e 208 990
e 209 252
e 209 256
e 209 261
e 209 271
e 209 274
e 209 275
e 209 278
e 209 281
e 209 286
e 209 312
e 209 333
e 209 337
e 209 366
e 209 371
e 209 376
e 209 379
e 209 381
e 209 386
e 209 392
e 209 400
e 209 402
e 209 404
e 209 407
e 209 409
e 209 419
e 209 420
e 209 424
e 209 446
e 209 450
e 209 463
e 209 475
e 209 486
e 209 490
e 209 493
e 209 498
e 209 499
e 209 517
e 209 523
e 209 525
e 209 528
e 209 539
e 209 548
e 209 587
e 209 621
e 209 636
e 209 646
e 209 655
e 209 657
e 209 659
e 209 685
e 209 707
e 209 719
e 209 724
e 209 730
e 209 747
e 209 750
e 209 758
e 209 759
e 209 766
e 209 771
e 209 772
e 209 784
e 209 786
e 209 790
e 209 795
e 209 808
e 209 817
e 209 818
e 209 835
e 209 836
e 209 838
e 209 841
e 209 845
e 209 848
e 209 849
e 209 854
e 209 864
e 209 865
e 209 869
e 209 872
e 209 875
e 209 877
e 209 890
e 209 895
e 209 901
e 209 925
e 209 929
e 209 943
e 209 969
e 210 274
e 210 275
e 210 276
e 210 296
e 210 305
e 210 318
e 210 319
e 210 328
e 210 331
e 210 337
e 210 394
e 210 401
e 210 407
e 210 417
e 210 418
e 210 419
e 210 428
e 210 430
e 210 456
e 210 461
e 210 462
e 210 463
e 210 473
e 210 487
e 210 489
e 210 491
e 210 494
e 210 496
e 210 498
e 210 509
e 210 522
e 210 523
e 210 528
e 210 530
e 210 558
e 210 560
e 210 563
e 210 568
e 210 606
e 210 611
e 210 630
e 210 636
e 210 659
e 210 677
e 210 721
e 210 723
e 210 737
e 210 739
e 210 745
e 210 751
e 210 767
e 210 781
e 210 786
e 210 793
e 210 794
e 210 805
e 210 806
e 210 814
e 210 831
e 210 858
e 210 860
e 210 862
e 210 874
e 210 881
e 210 884
e 210 890
e 210 893
e 210 912
e 210 914
e 210 941
e 210 962
e 210 971
e 210 974
e 210 992
e 210 996
e 210 1000
e 211 254
e 211 258
e 211 267
e 211 269
e 211 272
e 211 278
e 211 292
e 211 298
e 211 299
e 211 322
e 211 325
e 211 327
e 211 330
e 211 348
e 211 356
e 211 359
e 211 364
e 211 366
e 211 374
e 211 387
e 211 402
e 211 412
e 211 442
e 211 457
e 211 472
e 211 473
e 211 487
e 211 494
e 211 502
e 211 522
e 211 527
e 211 553
e 211 572
e 211 573
e 211 580
e 211 589
e 211 590
e 211 595
e 211 615
e 211 616
e 211 619
e 211 632
e 211 633
e 211 653
e 211 662
e 211 663
e 211 667
e 211 700
e 211 704
e 211 708
e 211 716
e 211 727
e 211 742
e 211 751
e 211 753
e 211 754
e 211 770
e 211 776
e 211 777
e 211 787
e 211 789
e 211 791
e 211 796
e 211 812
e 211 825
e 211 826
e 211 831
e 211 853
e 211 855
e 211 879
e 211 882
e 211 885
e 211 888
e 211 891
e 211 913
e 211 926
e 211 932
e 211 936
e 211 941
e 211 946
e 211 958
e 211 961
e 211 973
e 211 978
e 211 980
e 212 252
e 212 258
e 212 271
e 212 277
e 212 278
e 212 288
e 212 289
e 212 295
e 212 297
e 212 298
e 212 303
e 212 305
e 212 307
e 212 311
e 212 314
e 212 325
e 212 346
e 212 347
e 212 351
e 212 354
e 212 363
e 212 364
e 212 368
e 212 394
e 212 395
e 212 407
e 212 410
e 212 412
e 212 415
e 212 431
e 212 449
e 212 451
e 212 452
e 212 470
e 212 482
e 212 486
e 212 489
e 212 496
e 212 523
e 212 529
e 212 535
e 212 537
e 212 552
e 212 555
e 212 560
e 212 563
e 212 571
e 212 581
e 212 586
e 212 587
e 212 605
e 212 613
e 212 614
e 212 620
e 212 622
e 212 643
e 212 659
e 212 664
e 212 675
e 212 677
e 212 705
e 212 708
e 212 713
e 212 717
e 212 721
e 212 722
e 212 730
e 212 736
e 212 745
e 212 753
e 212 757
e 212 801
e 212 804
e 212 807
e 212 815
e 212 817
e 212 867
e 212 873
e 212 890
e 212 900
e 212 903
e 212 907
e 212 909
e 212 912
e 212 945
e 212 957
e 212 978
e 212 979
e 212 991
e 212 992
e 212 999
e 213 262
e 213 278
e 213 285
e 213 296
e 213 314
e 213 324
e 213 345
e 213 351
e 213 356
e 213 368
e 213 372
e 213 412
e 213 417
e 213 427
e 213 437
e 213 446
e 213 450
e 213 454
e 213 492
e 213 495
e 213 499
e 213 506
e 213 512
e 213 524
e 213 534
e 213 539
e 213 556
e 213 559
e 213 560
e 213 584
e 213 587
e 213 595
e 213 598
e 213 613
e 213 632
e 213 634
e 213 636
e 213 643
e 213 659
e 213 684
e 213 687
e 213 691
e 213 698
e 213 699
e 213 705
e 213 710
e 213 729
e 213 748
e 213 749
e 213 750
e 213 756
e 213 758
e 213 770
e 213 773
e 213 798
e 213 809
e 213 830
e 213 855
e 213 858
e 213 867
e 213 869
e 213 888
e 213 900
e 213 914
e 213 972
e 213 984
e 213 987
e 213 988
e 214 255
e 214 273
e 214 280
e 214 281
e 214 297
e 214 306
e 214 311
e 214 327
e 214 330
e 214 334
e 214 335
e 214 354
e 214 372
e 214 381
e 214 387
e 214 388
e 214 399
e 214 406
e 214 422
e 214 425
e 214 439
e 214 444
e 214 470
e 214 479
e 214 492
e 214 526
e 214 532
e 214 550
e 214 556
e 214 558
e 214 563
e 214 573
e 214 584
e 214 593
e 214 609
e 214 625
e 214 635
e 214 641
e 214 644
e 214 657
e 214 663
e 214 686
e 214 688
e 214 690
e 214 692
e 214 693
e 214 708
e 214 724
e 214 780
e 214 785
e 214 786
e 214 797
e 214 800
e 214 801
e 214 802
e 214 817
e 214 832
e 214 837
e 214 841
e 214 848
e 214 865
e 214 868
e 214 870
e 214 883
e 214 888
e 214 890
e 214 893
e 214 898
e 214 910
e 214 915
e 214 945
e 214 961
e 214 980
e 214 991
e 215 284
e 215 290
e 215 306
e 215 316
e 215 319
e 215 320
e 215 340
e 215 347
e 215 349
e 215 363
e 215 374
e 215 377
e 215 388
e 215 395
e 215 397
e 215 423
e 215 441
e 215 444
e 215 474
e 215 475
e 215 480
e 215 484
e 215 493
e 215 495
e 215 501
e 215 503
e 215 511
e 215 526
e 215 530
e 215 541
e 215 549
e 215 554
e 215 555
e 215 563
e 215 573
e 215 579
e 215 593
e 215 596
e 215 598
e 215 605
e 215 615
e 215 624
e 215 637
e 215 644
e 215 658
e 215 670
e 215 681
e 215 685
e 215 699
e 215 710
e 215 712
e 215 760
e 215 761
e 215 772
e 215 776
e 215 794
e 215 796
e 215 798
e 215 799
e 215 808
e 215 821
e 215 829
e 215 832
e 215 849
e 215 860
e 215 862
e 215 871
e 215 895
e 215 898
e 215 900
e 215 910
e 215 929
e 215 938
e 215 946
e 215 951
e 215 957
e 216 251
e 216 259
e 216 263
e 216 266
e 216 268
e 216 280
e 216 289
e 216 300
e 216 305
e 216 320
e 216 326
e 216 350
e 216 358
e 216 369
e 216 387
e 216 402
e 216 404
e 216 428
e 216 452
e 216 477
e 216 480
e 216 492
e 216 494
e 216 500
e 216 507
e 216 515
e 216 523
e 216 524
e 216 532
e 216 570
e 216 586
e 216 605
e 216 626
e 216 633
e 216 640
e 216 652
e 216 661
e 216 686
e 216 691
e 216 700
e 216 704
e 216 706
e 216 711
e 216 740
e 216 743
e 216 776
e 216 779
e 216 786
e 216 800
e 216 810
e 216 819
e 216 841
e 216 843
e 216 851
e 216 853
e 216 866
e 216 879
e 216 893
e 216 919
e 216 924
e 216 952
e 216 960
e 216 971
e 216 973
e 216 978
e 216 979
e 216 981
e 216 982
e 216 986
e 217 284
e 217 287
e 217 293
e 217 316
e 217 323
e 217 326
e 217 340
e 217 344
e 217 349
e 217 356
e 217 362
e 217 377
e 217 388
e 217 392
e 217 400
e 217 418
e 217 440
e 217 443
e 217 461
e 217 464
e 217 476
e 217 494
e 217 512
e 217 522
e 217 524
e 217 525
e 217 564
e 217 579
e 217 581
e 217 599
e 217 606
e 217 627
e 217 630
e 217 635
e 217 640
e 217 656
e 217 666
e 217 681
e 217 690
e 217 701
e 217 714
e 217 720
e 217 721
e 217 722
e 217 745
e 217 752
e 217 754
e 217 755
e 217 758
e 217 790
e 217 791
e 217 798
e 217 804
e 217 813
e 217 819
e 217 820
e 217 836
e 217 856
e 217 860
e 217 866
e 217 885
e 217 930
e 217 940
e 217 954
e 217 958
e 217 959
e 217 976
e 218 265
e 218 272
e 218 275
e 218 324
e 218 343
e 218 353
e 218 368
e 218 377
e 218 379
e 218 382
e 218 399
e 218 408
e 218 415
e 218 420
e 218 422
e 218 425
e 218 431
e 218 437
e 218 444
e 218 446
e 218 458
e 218 461
e 218 463
e 218 468
e 218 480
e 218 501
e 218 502
e 218 507
e 218 518
e 218 522
e 218 535
e 218 541
e 218 542
e 218 547
e 218 572
e 218 577
e 218 586
e 218 591
e 218 595
e 218 604
e 218 624
e 218 667
e 218 672
e 218 687
e 218 688
e 218 689
e 218 695
e 218 707
e 218 770
e 218 791
e 218 828
e 218 833
e 218 846
e 218 848
e 218 852
e 218 859
e 218 860
e 218 865
e 218 872
e 218 882
e 218 890
e 218 895
e 218 897
e 218 909
e 218 912
e 218 930
e 218 934
e 218 971
e 218 978
e 218 979
e 218 981
e 218 998
e 219 253
e 219 270
e 219 273
e 219 275
e 219 301
e 219 307
e 219 319
e 219 327
e 219 329
e 219 355
e 219 362
e 219 366
e 219 380
e 219 385
e 219 389
e 219 390
e 219 399
e 219 414
e 219 475
e 219 480
e 219 486
e 219 488
e 219 491
e 219 504
e 219 517
e 219 518
e 219 529
e 219 554
e 219 560
e 219 574
e 219 575
e 219 579
e 219 590
e 219 591
e 219 596
e 219 608
e 219 610
e 219 682
e 219 700
e 219 701
e 219 706
e 219 708
e 219 713
e 219 731
e 219 732
e 219 737
e 219 755
e 219 757
e 219 758
e 219 763
e 219 770
e 219 788
e 219 790
e 219 798
e 219 815
e 219 817
e 219 843
e 219 846
e 219 856
e 219 860
e 219 890
e 219 891
e 219 907
e 219 923
e 219 925
e 219 926
e 219 938
e 219 959
e 219 974
e 219 977
e 219 978
e 219 979
e 219 989
e 220 273
e 220 304
e 220 333
e 220 356
e 220 357
e 220 367
e 220 373
e 220 374
e 220 378
e 220 381
e 220 386
e 220 390
e 220 406
e 220 429
e 220 464
e 220 477
e 220 484
e 220 488
e 220 497
e 220 505
e 220 513
e 220 514
e 220 531
e 220 557
e 220 563
e 220 593
e 220 617
e 220 632
e 220 643
e 220 649
e 220 675
e 220 686
e 220 689
e 220 695
e 220 710
e 220 744
e 220 750
e 220 757
e 220 796
e 220 801
e 220 802
e 220 829
e 220 840
e 220 846
e 220 862
e 220 870
e 220 877
e 220 892
e 220 898
e 220 910
e 220 922
e 220 926
e 220 931
e 220 944
e 220 968
e 220 972
e 220 993
e 221 266
e 221 272
e 221 293
e 221 295
e 221 296
e 221 307
e 221 322
e 221 324
e 221 327
e 221 366
e 221 371
e 221 393
e 221 409
e 221 415
e 221 417
e 221 420
e 221 422
e 221 425
e 221 429
e 221 455
e 221 471
e 221 478
e 221 482
e 221 488
e 221 506
e 221 523
e 221 540
e 221 553
e 221 558
e 221 563
e 221 572
e 221 582
e 221 591
e 221 593
e 221 603
e 221 613
e 221 618
e 221 619
e 221 631
e 221 645
e 221 658
e 221 664
e 221 674
e 221 685
e 221 695
e 221 705
e 221 724
e 221 738
e 221 744
e 221 769
e 221 774
e 221 779
e 221 782
e 221 784
e 221 812
e 221 816
e 221 840
e 221 884
e 221 899
e 221 902
e 221 913
e 221 918
e 221 936
e 221 951
e 221 965
e 221 982
e 221 983
e 221 985
e 221 986
e 221 988
e 221 992
e 221 998
e 222 267
e 222 274
e 222 278
e 222 281
e 222 282
e 222 293
e 222 324
e 222 328
e 222 329
e 222 337
e 222 357
e 222 372
e 222 374
e 222 382
e 222 392
e 222 397
e 222 398
e 222 402
e 222 416
e 222 418
e 222 431
e 222 439
e 222 442
e 222 447
e 222 459
e 222 463
e 222 467
e 222 472
e 222 480
e 222 486
e 222 508
e 222 515
e 222 528
e 222 547
e 222 582
e 222 583
e 222 591
e 222 593
e 222 603
e 222 606
e 222 615
e 222 628
e 222 639
e 222 643
e 222 649
e 222 657
e 222 670
e 222 674
e 222 679
e 222 694
e 222 713
e 222 727
e 222 734
e 222 735
e 222 740
e 222 741
e 222 750
e 222 756
e 222 770
e 222 775
e 222 811
e 222 825
e 222 833
e 222 834
e 222 837
e 222 840
e 222 859
e 222 862
e 222 863
e 222 888
e 222 923
e 222 926
e 222 963
e 222 970
e 222 976
e 222 984
e 222 988
e 222 992
e 222 995
e 223 251
e 223 255
e 223 263
e 223 273
e 223 274
e 223 281
e 223 287
e 223 299
e 223 325
e 223 329
e 223 346
e 223 351
e 223 366
e 223 367
e 223 376
e 223 384
e 223 394
e 223 397
e 223 402
e 223 425
e 223 446
e 223 459
e 223 490
e 223 505
e 223 506
e 223 509
e 223 512
e 223 524
e 223 559
e 223 575
e 223 578
e 223 579
e 223 581
e 223 583
e 223 585
e 223 586
e 223 588
e 223 602
e 223 619
e 223 630
e 223 633
e 223 634
e 223 636
e 223 638
e 223 646
e 223 657
e 223 664
e 223 665
e 223 672
e 223 674
e 223 692
e 223 707
e 223 727
e 223 728
e 223 735
e 223 747
e 223 754
e 223 755
e 223 777
e 223 780
e 223 795
e 223 800
e 223 824
e 223 837
e 223 840
e 223 855
e 223 870
e 223 879
e 223 898
e 223 908
e 223 910
e 223 918
e 223 928
e 223 933
e 223 934
e 223 947
e 223 954
e 223 979
e 223 991
e 223 997
e 224 254
e 224 266
e 224 271
e 224 280
e 224 290
e 224 302
e 224 333
e 224 338
e 224 345
e 224 370
e 224 371
e 224 376
e 224 394
e 224 396
e 224 416
e 224 421
e 224 422
e 224 433
e 224 452
e 224 460
e 224 471
e 224 488
e 224 489
e 224 505
e 224 528
e 224 531
e 224 533
e 224 539
e 224 547
e 224 551
e 224 554
e 224 558
e 224 561
e 224 570
e 224 577
e 224 584
e 224 586
e 224 600
e 224 616
e 224 625
e 224 631
e 224 638
e 224 644
e 224 648
e 224 664
e 224 682
e 224 683
e 224 687
e 224 689
e 224 693
e 224 713
e 224 714
e 224 720
e 224 731
e 224 732
e 224 736
e 224 737
e 224 743
e 224 744
e 224 759
e 224 793
e 224 810
e 224 847
e 224 859
e 224 868
e 224 870
e 224 883
e 224 884
e 224 888
e 224 891
e 224 897
e 224 907
e 224 931
e 224 947
e 224 963
e 224 973
e 224 974
e 224 990
e 225 253
e 225 293
e 225 304
e 225 311
e 225 317
e 225 368
e 225 377
e 225 395
e 225 396
e 225 406
e 225 416
e 225 419
e 225 438
e 225 441
e 225 462
e 225 468
e 225 474
e 225 475
e 225 517
e 225 521
e 225 527
e 225 533
e 225 535
e 225 548
e 225 556
e 225 569
e 225 571
e 225 579
e 225 594
e 225 599
e 225 615
e 225 626
e 225 630
e 225 636
e 225 643
e 225 644
e 225 645
e 225 656
e 225 667
e 225 670
e 225 678
e 225 694
e 225 704
e 225 717
e 225 721
e 225 735
e 225 745
e 225 754
e 225 773
e 225 779
e 225 785
e 225 793
e 225 795
e 225 809
e 225 816
e 225 837
e 225 841
e 225 849
e 225 850
e 225 856
e 225 861
e 225 867
e 225 869
e 225 871
e 225 878
e 225 924
e 225 930
e 225 934
e 225 939
e 225 943
e 225 948
e 225 951
e 225 965
e 225 966
e 225 975
e 225 990
e 225 998
e 226 255
e 226 265
e 226 312
e 226 317
e 226 343
e 226 350
e 226 356
e 226 376
e 226 387
e 226 394
e 226 400
e 226 402
e 226 454
e 226 465
e 226 477
e 226 497
e 226 498
e 226 506
e 226 512
e 226 520
e 226 529
e 226 531
e 226 532
e 226 539
e 226 556
e 226 561
e 226 588
e 226 610
e 226 619
e 226 622
e 226 625
e 226 636
e 226 640
e 226 646
e 226 649
e 226 652
e 226 653
e 226 657
e 226 678
e 226 684
e 226 692
e 226 696
e 226 703
e 226 704
e 226 709
e 226 729
e 226 739
e 226 741
e 226 743
e 226 746
e 226 758
e 226 769
e 226 773
e 226 783
e 226 788
e 226 798
e 226 803
e 226 808
e 226 811
e 226 819
e 226 825
e 226 829
e 226 880
e 226 889
e 226 893
e 226 920
e 226 935
e 226 945
e 226 968
e 226 972
e 226 976
e 227 254
e 227 256
e 227 269
e 227 270
e 227 273
e 227 276
e 227 277
e 227 279
e 227 305
e 227 321
e 227 326
e 227 332
e 227 333
e 227 334
e 227 343
e 227 345
e 227 350
e 227 354
e 227 370
e 227 371
e 227 403
e 227 407
e 227 411
e 227 430
e 227 444
e 227 453
e 227 464
e 227 468
e 227 500
e 227 503
e 227 515
e 227 516
e 227 525
e 227 530
e 227 535
e 227 538
e 227 555
e 227 562
e 227 563
e 227 564
e 227 571
e 227 583
e 227 586
e 227 591
e 227 605
e 227 617
e 227 643
e 227 665
e 227 667
e 227 676
e 227 679
e 227 686
e 227 689
e 227 707
e 227 714
e 227 750
e 227 768
e 227 771
e 227 777
e 227 783
e 227 784
e 227 816
e 227 817
e 227 838
e 227 851
e 227 866
e 227 897
e 227 911
e 227 914
e 227 945
e 227 949
e 227 951
e 227 952
e 227 956
e 227 961
e 227 964
e 227 980
e 227 986
e 227 988
e 227 989
e 227 999
e 227 1000
e 228 254
e 228 260
e 228 273
e 228 279
e 228 319
e 228 328
e 228 341
e 228 343
e 228 356
e 228 360
e 228 362
e 228 366
e 228 381
e 228 391
e 228 403
e 228 408
e 228 409
e 228 413
e 228 422
e 228 446
e 228 453
e 228 454
e 228 456
e 228 482
e 228 487
e 228 490
e 228 491
e 228 499
e 228 504
e 228 518
e 228 531
e 228 549
e 228 552
e 228 578
e 228 593
e 228 603
e 228 610
e 228 620
e 228 636
e 228 662
e 228 664
e 228 666
e 228 667
e 228 695
e 228 698
e 228 705
e 228 706
e 228 727
e 228 728
e 228 734
e 228 749
e 228 769
e 228 775
e 228 777
e 228 784
e 228 808
e 228 819
e 228 827
e 228 828
e 228 852
e 228 864
e 228 868
e 228 873
e 228 875
e 228 877
e 228 881
e 228 888
e 228 896
e 228 922
e 228 923
e 228 935
e 228 951
e 228 953
e 228 957
e 228 967
e 228 976
e 228 984
e 228 999
e 229 253
e 229 257
e 229 261
e 229 262
e 229 265
e 229 277
e 229 279
e 229 291
e 229 303
e 229 309
e 229 315
e 229 317
e 229 320
e 229 321
e 229 334
e 229 337
e 229 341
e 229 344
e 229 367
e 229 374
e 229 379
e 229 389
e 229 393
e 229 403
e 229 408
e 229 410
e 229 419
e 229 431
e 229 433
e 229 438
e 229 440
e 229 450
e 229 454
e 229 458
e 229 492
e 229 504
e 229 514
e 229 518
e 229 523
e 229 526
e 229 540
e 229 541
e 229 545
e 229 548
e 229 549
e 229 582
e 229 598
e 229 600
e 229 602
e 229 607
e 229 610
e 229 616
e 229 630
e 229 634
e 229 635
e 229 639
e 229 652
e 229 655
e 229 677
e 229 698
e 229 706
e 229 708
e 229 715
e 229 729
e 229 730
e 229 734
e 229 753
e 229 766
e 229 796
e 229 815
e 229 818
e 229 822
e 229 833
e 229 864
e 229 881
e 229 883
e 229 884
e 229 887
e 229 890
e 229 891
e 229 897
e 229 908
e 229 926
e 229 938
e 229 958
e 230 251
e 230 262
e 230 267
e 230 279
e 230 283
e 230 285
e 230 298
e 230 310
e 230 317
e 230 327
e 230 330
e 230 333
e 230 344
e 230 345
e 230 364
e 230 365
e 230 375
e 230 413
e 230 419
e 230 424
e 230 426
e 230 448
e 230 460
e 230 493
e 230 524
e 230 528
e 230 535
e 230 546
e 230 553
e 230 563
e 230 565
e 230 575
e 230 591
e 230 592
e 230 612
e 230 619
e 230 626
e 230 628
e 230 636
e 230 637
e 230 639
e 230 642
e 230 643
e 230 649
e 230 663
e 230 666
e 230 680
e 230 697
e 230 698
e 230 711
e 230 752
e 230 769
e 230 792
e 230 793
e 230 807
e 230 819
e 230 820
e 230 821
e 230 822
e 230 828
e 230 833
e 230 843
e 230 851
e 230 858
e 230 859
e 230 870
e 230 875
e 230 880
e 230 889
e 230 912
e 230 929
e 230 943
e 230 949
e 230 972
e 230 976
e 230 986
e 230 991
e 231 263
e 231 318
e 231 325
e 231 365
e 231 368
e 231 369
e 231 371
e 231 372
e 231 375
e 231 383
e 231 395
e 231 399
e 231 413
e 231 416
e 231 421
e 231 427
e 231 430
e 231 455
e 231 459
e 231 483
e 231 494
e 231 508
e 231 517
e 231 519
e 231 558
e 231 563
e 231 589
e 231 590
e 231 591
e 231 593
e 231 600
e 231 601
e 231 620
e 231 625
e 231 629
e 231 631
e 231 671
e 231 688
e 231 697
e 231 698
e 231 705
e 231 731
e 231 743
e 231 751
e 231 760
e 231 767
e 231 772
e 231 778
e 231 780
e 231 781
e 231 809
e 231 816
e 231 819
e 231 826
e 231 829
e 231 830
e 231 837
e 231 840
e 231 841
e 231 859
e 231 870
e 231 877
e 231 878
e 231 882
e 231 892
e 231 896
e 231 911
e 231 912
e 231 917
e 231 933
e 231 934
e 231 940
e 231 941
e 231 952
e 231 958
e 231 965
e 231 984
e 231 997
e 232 256
e 232 277
e 232 281
e 232 314
e 232 328
e 232 329
e 232 333
e 232 353
e 232 365
e 232 366
e 232 377
e 232 392
e 232 398
e 232 400
e 232 410
e 232 429
e 232 445
e 232 456
e 232 487
e 232 493
e 232 508
e 232 527
e 232 535
e 232 544
e 232 547
e 232 555
e 232 559
e 232 565
e 232 584
e 232 591
e 232 598
e 232 610
e 232 618
e 232 623
e 232 632
e 232 641
e 232 662
e 232 674
e 232 676
e 232 684
e 232 696
e 232 707
e 232 732
e 232 741
e 232 754
e 232 763
e 232 765
e 232 779
e 232 791
e 232 809
e 232 816
e 232 822
e 232 823
e 232 829
e 232 837
e 232 838
e 232 852
e 232 853
e 232 857
e 232 863
e 232 873
e 232 882
e 232 886
e 232 887
e 232 894
e 232 900
e 232 901
e 232 947
e 232 969
e 232 983
e 233 276
e 233 283
e 233 301
e 233 308
e 233 362
e 233 375
e 233 377
e 233 379
e 233 385
e 233 399
e 233 403
e 233 407
e 233 437
e 233 485
e 233 502
e 233 526
e 233 545
e 233 564
e 233 569
e 233 578
e 233 583
e 233 586
e 233 606
e 233 612
e 233 616
e 233 619
e 233 622
e 233 641
e 233 644
e 233 648
e 233 666
e 233 676
e 233 690
e 233 694
e 233 696
e 233 722
e 233 731
e 233 745
e 233 758
e 233 759
e 233 766
e 233 769
e 233 770
e 233 771
e 233 780
e 233 791
e 233 796
e 233 809
e 233 816
e 233 818
e 233 827
e 233 837
e 233 861
e 233 862
e 233 884
e 233 886
e 233 893
e 233 920
e 233 940
e 233 945
e 233 949
e 233 954
e 233 957
e 233 960
e 233 968
e 233 996
e 234 265
e 234 267
e 234 278
e 234 300
e 234 321
e 234 329
e 234 333
e 234 337
e 234 342
e 234 347
e 234 350
e 234 359
e 234 361
e 234 366
e 234 368
e 234 401
e 234 405
e 234 406
e 234 407
e 234 412
e 234 430
e 234 436
e 234 448
e 234 449
e 234 452
e 234 538
e 234 546
e 234 550
e 234 562
e 234 582
e 234 585
e 234 597
e 234 598
e 234 608
e 234 622
e 234 632
e 234 639
e 234 642
e 234 651
e 234 652
e 234 657
e 234 674
e 234 677
e 234 681
e 234 700
e 234 703
e 234 715
e 234 724
e 234 729
e 234 730
e 234 736
e 234 758
e 234 788
e 234 794
e 234 803
e 234 812
e 234 826
e 234 849
e 234 851
e 234 869
e 234 873
e 234 875
e 234 883
e 234 889
e 234 896
e 234 906
e 234 925
e 234 932
e 234 944
e 234 950
e 234 952
e 234 992
e 234 993
e 235 261
e 235 265
e 235 270
e 235 273
e 235 277
e 235 281
e 235 283
e 235 300
e 235 302
e 235 312
e 235 324
e 235 334
e 235 339
e 235 361
e 235 362
e 235 377
e 235 385
e 235 392
e 235 398
e 235 403
e 235 411
e 235 432
e 235 440
e 235 445
e 235 455
e 235 463
e 235 468
e 235 473
e 235 496
e 235 523
e 235 524
e 235 554
e 235 558
e 235 572
e 235 577
e 235 580
e 235 596
e 235 607
e 235 623
e 235 629
e 235 630
e 235 636
e 235 652
e 235 657
e 235 677
e 235 679
e 235 680
e 235 682
e 235 690
e 235 713
e 235 714
e 235 725
e 235 726
e 235 734
e 235 741
e 235 746
e 235 747
e 235 758
e 235 766
e 235 778
e 235 782
e 235 785
e 235 788
e 235 797
e 235 844
e 235 869
e 235 875
e 235 892
e 235 897
e 235 903
e 235 906
e 235 914
e 235 919
e 235 922
e 235 927
e 235 928
e 235 933
e 235 937
e 235 952
e 235 960
e 235 965
e 235 992
e 236 255
e 236 267
e 236 268
e 236 284
e 236 285
e 236 287
e 236 291
e 236 301
e 236 305
e 236 313
e 236 329
e 236 381
e 236 386
e 236 403
e 236 407
e 236 408
e 236 410
e 236 424
e 236 430
e 236 433
e 236 441
e 236 448
e 236 452
e 236 467
e 236 474
e 236 480
e 236 499
e 236 512
e 236 513
e 236 521
e 236 536
e 236 542
e 236 549
e 236 560
e 236 572
e 236 575
e 236 580
e 236 591
e 236 598
e 236 607
e 236 628
e 236 631
e 236 644
e 236 646
e 236 647
e 236 649
e 236 651
e 236 678
e 236 679
e 236 691
e 236 694
e 236 705
e 236 709
e 236 715
e 236 716
e 236 732
e 236 733
e 236 756
e 236 760
e 236 763
e 236 764
e 236 776
e 236 779
e 236 795
e 236 802
e 236 816
e 236 820
e 236 837
e 236 842
e 236 854
e 236 903
e 236 937
e 236 975
e 236 985
e 236 999
e 237 253
e 237 269
e 237 276
e 237 279
e 237 280
e 237 281
e 237 285
e 237 309
e 237 323
e 237 342
e 237 343
e 237 377
e 237 378
e 237 382
e 237 391
e 237 395
e 237 410
e 237 414
e 237 436
e 237 437
e 237 448
e 237 457
e 237 460
e 237 464
e 237 472
e 237 507
e 237 508
e 237 516
e 237 535
e 237 539
e 237 550
e 237 554
e 237 555
e 237 558
e 237 562
e 237 564
e 237 569
e 237 575
e 237 590
e 237 596
e 237 615
e 237 626
e 237 630
e 237 636
e 237 637
e 237 645
e 237 647
e 237 656
e 237 671
e 237 685
e 237 687
e 237 697
e 237 718
e 237 719
e 237 724
e 237 752
e 237 757
e 237 764
e 237 793
e 237 797
e 237 801
e 237 805
e 237 814
e 237 822
e 237 827
e 237 847
e 237 876
e 237 879
e 237 890
e 237 902
e 237 905
e 237 909
e 237 917
e 237 918
e 237 920
e 237 932
e 237 938
e 237 939
e 237 947
e 237 949
e 237 963
e 238 261
e 238 263
e 238 267
e 238 282
e 238 306
e 238 313
e 238 317
e 238 326
e 238 339
e 238 365
e 238 368
e 238 377
e 238 394
e 238 396
e 238 399
e 238 404
e 238 407
e 238 414
e 238 415
e 238 424
e 238 437
e 238 442
e 238 448
e 238 456
e 238 457
e 238 466
e 238 476
e 238 485
e 238 488
e 238 493
e 238 495
e 238 506
e 238 508
e 238 514
e 238 517
e 238 524
e 238 538
e 238 551
e 238 565
e 238 570
e 238 578
e 238 587
e 238 623
e 238 626
e 238 628
e 238 631
e 238 632
e 238 637
e 238 653
e 238 696
e 238 712
e 238 733
e 238 735
e 238 743
e 238 753
e 238 755
e 238 771
e 238 785
e 238 790
e 238 794
e 238 800
e 238 826
e 238 843
e 238 844
e 238 849
e 238 865
e 238 872
e 238 889
e 238 908
e 238 917
e 238 925
e 238 934
e 238 941
e 238 949
e 238 950
e 238 953
e 238 972
e 238 984
e 238 988
e 238 993
e 239 253
e 239 259
e 239 262
e 239 265
e 239 281
e 239 294
e 239 298
e 239 303
e 239 309
e 239 319
e 239 325
e 239 326
e 239 333
e 239 334
e 239 345
e 239 374
e 239 424
e 239 438
e 239 442
e 239 444
e 239 456
e 239 473
e 239 484
e 239 517
e 239 535
e 239 543
e 239 563
e 239 569
e 239 571
e 239 590
e 239 627
e 239 633
e 239 636
e 239 656
e 239 657
e 239 658
e 239 661
e 239 677
e 239 679
e 239 688
e 239 693
e 239 697
e 239 699
e 239 735
e 239 745
e 239 755
e 239 759
e 239 772
e 239 777
e 239 779
e 239 795
e 239 824
e 239 830
e 239 832
e 239 855
e 239 857
e 239 893
e 239 894
e 239 910
e 239 922
e 239 947
e 239 949
e 239 950
e 239 955
e 239 957
e 239 968
e 239 975
e 239 991
e 239 996
e 239 997
e 240 255
e 240 279
e 240 299
e 240 302
e 240 308
e 240 311
e 240 313
e 240 320
e 240 343
e 240 346
e 240 364
e 240 378
e 240 385
e 240 392
e 240 398
e 240 400
e 240 401
e 240 422
e 240 425
e 240 429
e 240 436
e 240 445
e 240 448
e 240 463
e 240 467
e 240 469
e 240 488
e 240 489
e 240 509
e 240 531
e 240 533
e 240 564
e 240 582
e 240 585
e 240 592
e 240 594
e 240 596
e 240 597
e 240 614
e 240 617
e 240 618
e 240 631
e 240 632
e 240 657
e 240 662
e 240 676
e 240 677
e 240 681
e 240 697
e 240 722
e 240 726
e 240 734
e 240 745
e 240 766
e 240 777
e 240 791
e 240 795
e 240 816
e 240 830
e 240 866
e 240 877
e 240 884
e 240 890
e 240 891
e 240 911
e 240 915
e 240 925
e 240 956
e 240 957
e 240 961
e 240 965
e 240 970
e 240 974
e 240 975
e 240 981
e 240 984
e 240 985
e 240 989
e 240 991
e 240 999
e 241 255
e 241 256
e 241 302
e 241 303
e 241 341
e 241 342
e 241 349
e 241 356
e 241 365
e 241 371
e 241 372
e 241 383
e 241 391
e 241 396
e 241 408
e 241 422
e 241 432
e 241 441
e 241 457
e 241 461
e 241 473
e 241 474
e 241 491
e 241 494
e 241 503
e 241 506
e 241 509
e 241 510
e 241 531
e 241 536
e 241 560
e 241 574
e 241 576
e 241 586
e 241 612
e 241 651
e 241 656
e 241 664
e 241 666
e 241 689
e 241 698
e 241 701
e 241 715
e 241 733
e 241 738
e 241 742
e 241 746
e 241 750
e 241 769
e 241 773
e 241 780
e 241 787
e 241 796
e 241 797
e 241 810
e 241 812
e 241 844
e 241 847
e 241 863
e 241 869
e 241 877
e 241 878
e 241 885
e 241 887
e 241 898
e 241 902
e 241 903
e 241 924
e 241 930
e 241 937
e 241 938
e 241 942
e 241 954
e 241 985
e 241 998
e 241 999
e 242 300
e 242 303
e 242 310
e 242 311
e 242 314
e 242 328
e 242 332
e 242 342
e 242 355
e 242 361
e 242 366
e 242 377
e 242 387
e 242 390
e 242 391
e 242 398
e 242 410
e 242 423
e 242 430
e 242 440
e 242 447
e 242 460
e 242 494
e 242 495
e 242 521
e 242 528
e 242 529
e 242 541
e 242 545
e 242 549
e 242 562
e 242 566
e 242 589
e 242 594
e 242 623
e 242 654
e 242 678
e 242 684
e 242 694
e 242 702
e 242 708
e 242 710
e 242 732
e 242 739
e 242 745
e 242 757
e 242 769
e 242 773
e 242 776
e 242 784
e 242 797
e 242 799
e 242 805
e 242 810
e 242 819
e 242 838
e 242 849
e 242 852
e 242 853
e 242 856
e 242 867
e 242 869
e 242 888
e 242 897
e 242 904
e 242 920
e 242 929
e 242 942
e 242 947
e 242 955
e 242 956
e 242 959
e 242 966
e 242 986
e 243 275
e 243 280
e 243 286
e 243 288
e 243 290
e 243 294
e 243 296
e 243 298
e 243 299
e 243 301
e 243 303
e 243 308
e 243 314
e 243 321
e 243 359
e 243 362
e 243 366
e 243 389
e 243 424
e 243 426
e 243 429
e 243 432
e 243 440
e 243 450
e 243 471
e 243 481
e 243 505
e 243 507
e 243 526
e 243 527
e 243 528
e 243 538
e 243 539
e 243 549
e 243 551
e 243 567
e 243 624
e 243 641
e 243 647
e 243 649
e 243 660
e 243 671
e 243 676
e 243 683
e 243 695
e 243 698
e 243 719
e 243 723
e 243 724
e 243 757
e 243 772
e 243 774
e 243 777
e 243 805
e 243 810
e 243 814
e 243 829
e 243 832
e 243 837
e 243 842
e 243 854
e 243 864
e 243 869
e 243 873
e 243 877
e 243 892
e 243 923
e 243 931
e 243 953
e 243 961
e 243 974
e 243 994
e 243 997
e 244 251
e 244 265
e 244 275
e 244 280
e 244 289
e 244 298
e 244 314
e 244 322
e 244 327
e 244 331
e 244 337
e 244 350
e 244 396
e 244 398
e 244 405
e 244 415
e 244 418
e 244 436
e 244 446
e 244 452
e 244 455
e 244 458
e 244 465
e 244 476
e 244 487
e 244 510
e 244 514
e 244 524
e 244 530
e 244 535
e 244 547
e 244 548
e 244 553
e 244 554
e 244 555
e 244 562
e 244 569
e 244 586
e 244 616
e 244 618
e 244 627
e 244 631
e 244 634
e 244 644
e 244 664
e 244 667
e 244 669
e 244 677
e 244 678
e 244 702
e 244 704
e 244 712
e 244 725
e 244 758
e 244 767
e 244 773
e 244 774
e 244 788
e 244 792
e 244 809
e 244 813
e 244 833
e 244 838
e 244 849
e 244 869
e 244 906
e 244 912
e 244 918
e 244 920
e 244 924
e 244 951
e 244 963
e 244 967
e 244 969
e 244 978
e 244 994
e 245 267
e 245 269
e 245 296
e 245 311
e 245 322
e 245 324
e 245 340
e 245 349
e 245 353
e 245 357
e 245 366
e 245 375
e 245 377
e 245 383
e 245 405
e 245 440
e 245 460
e 245 464
e 245 476
e 245 488
e 245 557
e 245 558
e 245 564
e 245 579
e 245 587
e 245 592
e 245 599
e 245 620
e 245 621
e 245 631
e 245 642
e 245 645
e 245 653
e 245 663
e 245 703
e 245 714
e 245 719
e 245 725
e 245 755
e 245 764
e 245 766
e 245 775
e 245 778
e 245 793
e 245 803
e 245 806
e 245 810
e 245 816
e 245 820
e 245 824
e 245 850
e 245 852
e 245 862
e 245 872
e 245 875
e 245 893
e 245 909
e 245 918
e 245 922
e 245 935
e 245 963
e 245 964
e 245 966
e 245 986
e 246 271
e 246 298
e 246 310
e 246 314
e 246 322
e 246 327
e 246 330
e 246 332
e 246 334
e 246 340
e 246 353
e 246 357
e 246 362
e 246 369
e 246 374
e 246 377
e 246 412
e 246 426
e 246 434
e 246 435
e 246 447
e 246 470
e 246 480
e 246 487
e 246 503
e 246 514
e 246 521
e 246 532
e 246 537
e 246 545
e 246 553
e 246 557
e 246 569
e 246 592
e 246 597
e 246 602
e 246 603
e 246 611
e 246 613
e 246 624
e 246 626
e 246 631
e 246 633
e 246 648
e 246 649
e 246 651
e 246 661
e 246 667
e 246 677
e 246 678
e 246 694
e 246 697
e 246 702
e 246 707
e 246 709
e 246 733
e 246 735
e 246 739
e 246 751
e 246 765
e 246 767
e 246 771
e 246 778
e 246 780
e 246 791
e 246 794
e 246 808
e 246 819
e 246 821
e 246 827
e 246 855
e 246 860
e 246 894
e 246 896
e 246 926
e 246 932
e 246 938
e 246 954
e 246 962
e 246 970
e 246 973
e 246 976
e 247 252
e 247 255
e 247 259
e 247 274
e 247 284
e 247 298
e 247 300
e 247 304
e 247 315
e 247 330
e 247 332
e 247 337
e 247 354
e 247 359
e 247 368
e 247 371
e 247 382
e 247 395
e 247 396
e 247 413
e 247 430
e 247 431
e 247 435
e 247 453
e 247 460
e 247 463
e 247 475
e 247 477
e 247 489
e 247 502
e 247 504
e 247 506
e 247 513
e 247 516
e 247 517
e 247 533
e 247 538
e 247 558
e 247 561
e 247 563
e 247 572
e 247 580
e 247 588
e 247 595
e 247 597
e 247 616
e 247 620
e 247 634
e 247 639
e 247 642
e 247 654
e 247 671
e 247 675
e 247 693
e 247 694
e 247 699
e 247 715
e 247 726
e 247 730
e 247 733
e 247 747
e 247 751
e 247 753
e 247 765
e 247 766
e 247 768
e 247 769
e 247 772
e 247 773
e 247 788
e 247 802
e 247 807
e 247 822
e 247 833
e 247 835
e 247 839
e 247 855
e 247 858
e 247 863
e 247 864
e 247 867
e 247 872
e 247 888
e 247 892
e 247 924
e 247 928
e 247 941
e 247 944
e 247 946
e 247 948
e 247 957
e 247 970
e 247 983
e 247 986
e 247 991
e 248 271
e 248 272
e 248 293
e 248 297
e 248 308
e 248 315
e 248 319
e 248 327
e 248 328
e 248 334
e 248 347
e 248 348
e 248 359
e 248 368
e 248 369
e 248 370
e 248 376
e 248 385
e 248 403
e 248 423
e 248 441
e 248 452
e 248 456
e 248 461
e 248 464
e 248 466
e 248 475
e 248 512
e 248 524
e 248 525
e 248 532
e 248 541
e 248 543
e 248 551
e 248 557
e 248 568
e 248 585
e 248 593
e 248 599
e 248 633
e 248 635
e 248 640
e 248 682
e 248 690
e 248 705
e 248 725
e 248 726
e 248 735
e 248 741
e 248 746
e 248 747
e 248 757
e 248 762
e 248 782
e 248 787
e 248 791
e 248 804
e 248 815
e 248 820
e 248 828
e 248 836
e 248 843
e 248 859
e 248 861
e 248 867
e 248 892
e 248 920
e 248 926
e 248 931
e 248 937
e 248 938
e 248 942
e 248 946
e 248 965
e 248 966
e 248 969
e 248 977
e 248 979
e 248 984
e 248 990
e 248 993
e 249 268
e 249 282
e 249 312
e 249 314
e 249 328
e 249 339
e 249 346
e 249 361
e 249 362
e 249 368
e 249 374
e 249 385
e 249 398
e 249 402
e 249 414
e 249 419
e 249 424
e 249 434
e 249 443
e 249 449
e 249 450
e 249 453
e 249 459
e 249 499
e 249 528
e 249 529
e 249 531
e 249 534
e 249 544
e 249 553
e 249 557
e 249 577
e 249 598
e 249 611
e 249 614
e 249 615
e 249 624
e 249 632
e 249 641
e 249 646
e 249 654
e 249 662
e 249 666
e 249 676
e 249 699
e 249 712
e 249 716
e 249 739
e 249 751
e 249 773
e 249 776
e 249 779
e 249 793
e 249 804
e 249 819
e 249 832
e 249 835
e 249 857
e 249 863
e 249 867
e 249 921
e 249 927
e 249 930
e 249 933
e 249 942
e 249 951
e 249 955
e 249 970
e 249 971
e 250 253
e 250 263
e 250 266
e 250 275
e 250 280
e 250 285
e 250 288
e 250 289
e 250 307
e 250 310
e 250 332
e 250 334
e 250 339
e 250 357
e 250 367
e 250 369
e 250 377
e 250 381
e 250 397
e 250 401
e 250 411
e 250 420
e 250 422
e 250 425
e 250 444
e 250 448
e 250 454
e 250 461
e 250 466
e 250 491
e 250 492
e 250 499
e 250 508
e 250 534
e 250 551
e 250 552
e 250 556
e 250 591
e 250 597
e 250 603
e 250 606
e 250 614
e 250 615
e 250 622
e 250 658
e 250 661
e 250 663
e 250 664
e 250 665
e 250 669
e 250 671
e 250 674
e 250 682
e 250 685
e 250 692
e 250 700
e 250 701
e 250 712
e 250 742
e 250 755
e 250 763
e 250 779
e 250 806
e 250 809
e 250 813
e 250 829
e 250 842
e 250 860
e 250 885
e 250 889
e 250 903
e 250 920
e 250 922
e 250 925
e 250 933
e 250 939
e 250 944
e 250 948
e 250 955
e 250 977
e 250 982
e 250 986
e 250 989
