p edge 1000 9292
e 1 251
e 1 305
e 1 313
e 1 361
e 1 380
e 1 387
e 1 391
e 1 423
e 1 459
e 1 471
e 1 486
e 1 519
e 1 536
e 1 540
e 1 550
e 1 613
e 1 625
e 1 627
e 1 647
e 1 671
e 1 682
e 1 730
e 1 775
e 1 778
e 1 795
e 1 799
e 1 833
e 1 841
e 1 846
e 1 849
e 1 974
e 1 982
e 1 992
e 1 998
e 2 268
e 2 291
e 2 296
e 2 305
e 2 311
e 2 319
e 2 386
e 2 443
e 2 504
e 2 535
e 2 540
e 2 541
e 2 552
e 2 571
e 2 580
e 2 605
e 2 630
e 2 631
e 2 662
e 2 668
e 2 809
e 2 824
e 2 837
e 2 862
e 2 874
e 2 907
e 2 971
e 2 986
e 3 265
e 3 269
e 3 282
e 3 335
e 3 372
e 3 391
e 3 403
e 3 415
e 3 427
e 3 440
e 3 446
e 3 462
e 3 480
e 3 489
e 3 519
e 3 565
e 3 566
e 3 581
e 3 586
e 3 595
e 3 602
e 3 677
e 3 685
e 3 703
e 3 713
e 3 725
e 3 737
e 3 753
e 3 760
e 3 777
e 3 802
e 3 822
e 3 839
e 3 860
e 3 862
e 3 881
e 3 920
e 3 922
e 3 927
e 3 943
e 3 951
e 3 957
e 3 973
e 4 304
e 4 317
e 4 328
e 4 379
e 4 413
e 4 453
e 4 456
e 4 482
e 4 497
e 4 534
e 4 549
e 4 595
e 4 599
e 4 619
e 4 626
e 4 638
e 4 655
e 4 661
e 4 665
e 4 670
e 4 730
e 4 733
e 4 736
e 4 740
e 4 757
e 4 766
e 4 774
e 4 776
e 4 806
e 4 813
e 4 831
e 4 840
e 4 865
e 4 869
e 4 872
e 4 912
e 4 962
e 4 974
e 4 978
e 4 982
e 4 986
e 4 998
e 5 306
e 5 310
e 5 324
e 5 325
e 5 347
e 5 429
e 5 451
e 5 457
e 5 460
e 5 511
e 5 517
e 5 526
e 5 565
e 5 617
e 5 669
e 5 673
e 5 712
e 5 729
e 5 828
e 5 844
e 5 856
e 5 858
e 5 925
e 5 957
e 5 964
e 5 991
e 5 996
e 6 265
e 6 279
e 6 285
e 6 325
e 6 369
e 6 376
e 6 395
e 6 424
e 6 427
e 6 439
e 6 452
e 6 484
e 6 491
e 6 512
e 6 548
e 6 558
e 6 585
e 6 595
e 6 610
e 6 613
e 6 633
e 6 650
e 6 657
e 6 668
e 6 688
e 6 699
e 6 734
e 6 752
e 6 762
e 6 765
e 6 766
e 6 800
e 6 847
e 6 862
e 6 881
e 6 913
e 6 963
e 6 965
e 6 970
e 6 975
e 6 984
e 6 987
e 7 252
e 7 254
e 7 276
e 7 313
e 7 347
e 7 369
e 7 374
e 7 393
e 7 395
e 7 407
e 7 409
e 7 422
e 7 433
e 7 458
e 7 480
e 7 483
e 7 486
e 7 494
e 7 498
e 7 502
e 7 539
e 7 580
e 7 584
e 7 594
e 7 615
e 7 617
e 7 618
e 7 624
e 7 673
e 7 729
e 7 734
e 7 778
e 7 817
e 7 818
e 7 851
e 7 860
e 7 869
e 7 870
e 7 874
e 7 875
e 7 899
e 7 910
e 7 917
e 7 986
e 7 998
e 8 263
e 8 362
e 8 385
e 8 417
e 8 428
e 8 429
e 8 438
e 8 440
e 8 470
e 8 482
e 8 495
e 8 521
e 8 540
e 8 604
e 8 607
e 8 667
e 8 684
e 8 687
e 8 698
e 8 731
e 8 734
e 8 759
e 8 792
e 8 833
e 8 859
e 8 880
e 8 890
e 8 901
e 8 929
e 8 953
e 8 955
e 8 963
e 8 977
e 8 992
e 9 275
e 9 281
e 9 287
e 9 300
e 9 312
e 9 318
e 9 344
e 9 381
e 9 385
e 9 393
e 9 406
e 9 423
e 9 443
e 9 477
e 9 566
e 9 570
e 9 572
e 9 575
e 9 595
e 9 597
e 9 603
e 9 613
e 9 624
e 9 641
e 9 643
e 9 646
e 9 648
e 9 673
e 9 707
e 9 731
e 9 788
e 9 810
e 9 835
e 9 873
e 9 909
e 9 922
e 9 999
e 10 267
e 10 276
e 10 321
e 10 424
e 10 426
e 10 489
e 10 490
e 10 531
e 10 532
e 10 543
e 10 594
e 10 638
e 10 640
e 10 649
e 10 660
e 10 671
e 10 725
e 10 728
e 10 734
e 10 752
e 10 785
e 10 803
e 10 807
e 10 820
e 10 824
e 10 846
e 10 886
e 10 911
e 10 952
e 11 258
e 11 293
e 11 312
e 11 323
e 11 328
e 11 334
e 11 342
e 11 344
e 11 348
e 11 356
e 11 362
e 11 363
e 11 399
e 11 417
e 11 425
e 11 430
e 11 461
e 11 474
e 11 478
e 11 490
e 11 501
e 11 511
e 11 516
e 11 543
e 11 556
e 11 557
e 11 569
e 11 582
e 11 665
e 11 682
e 11 699
e 11 703
e 11 707
e 11 713
e 11 756
e 11 809
e 11 851
e 11 855
e 11 878
e 11 881
e 11 887
e 11 922
e 11 970
e 11 980
e 11 983
e 12 302
e 12 304
e 12 313
e 12 353
e 12 362
e 12 364
e 12 369
e 12 370
e 12 380
e 12 387
e 12 422
e 12 522
e 12 539
e 12 603
e 12 635
e 12 648
e 12 684
e 12 705
e 12 711
e 12 728
e 12 758
e 12 788
e 12 789
e 12 810
e 12 835
e 12 872
e 12 878
e 12 886
e 12 941
e 12 947
e 12 949
e 12 950
e 12 953
e 12 967
e 12 973
e 13 265
e 13 270
e 13 274
e 13 312
e 13 325
e 13 335
e 13 341
e 13 366
e 13 483
e 13 488
e 13 506
e 13 528
e 13 539
e 13 545
e 13 549
e 13 565
e 13 651
e 13 656
e 13 689
e 13 706
e 13 715
e 13 785
e 13 793
e 13 813
e 13 816
e 13 830
e 13 835
e 13 836
e 13 862
e 13 911
e 14 252
e 14 263
e 14 302
e 14 310
e 14 333
e 14 338
e 14 382
e 14 386
e 14 392
e 14 396
e 14 415
e 14 419
e 14 420
e 14 461
e 14 476
e 14 486
e 14 514
e 14 569
e 14 572
e 14 578
e 14 591
e 14 601
e 14 626
e 14 666
e 14 673
e 14 676
e 14 695
e 14 697
e 14 700
e 14 805
e 14 812
e 14 817
e 14 822
e 14 835
e 14 855
e 14 858
e 14 876
e 14 881
e 14 885
e 14 894
e 14 948
e 14 983
e 15 276
e 15 285
e 15 297
e 15 304
e 15 306
e 15 313
e 15 327
e 15 332
e 15 358
e 15 374
e 15 419
e 15 431
e 15 435
e 15 440
e 15 444
e 15 478
e 15 486
e 15 532
e 15 537
e 15 568
e 15 601
e 15 653
e 15 664
e 15 699
e 15 709
e 15 750
e 15 779
e 15 791
e 15 793
e 15 800
e 15 817
e 15 838
e 15 839
e 15 853
e 15 863
e 15 866
e 15 877
e 15 899
e 15 902
e 15 926
e 15 958
e 15 962
e 15 968
e 15 998
e 16 263
e 16 266
e 16 269
e 16 280
e 16 284
e 16 298
e 16 318
e 16 344
e 16 377
e 16 378
e 16 394
e 16 410
e 16 430
e 16 437
e 16 456
e 16 466
e 16 474
e 16 529
e 16 549
e 16 565
e 16 569
e 16 583
e 16 616
e 16 633
e 16 656
e 16 660
e 16 705
e 16 708
e 16 710
e 16 713
e 16 775
e 16 787
e 16 798
e 16 829
e 16 833
e 16 844
e 16 860
e 16 887
e 16 890
e 16 916
e 16 947
e 16 978
e 16 981
e 17 265
e 17 296
e 17 322
e 17 360
e 17 423
e 17 464
e 17 575
e 17 596
e 17 597
e 17 615
e 17 619
e 17 622
e 17 641
e 17 643
e 17 665
e 17 667
e 17 673
e 17 706
e 17 710
e 17 730
e 17 753
e 17 784
e 17 792
e 17 799
e 17 845
e 17 858
e 17 862
e 17 870
e 17 926
e 17 945
e 17 960
e 17 995
e 18 262
e 18 292
e 18 302
e 18 305
e 18 321
e 18 343
e 18 375
e 18 406
e 18 412
e 18 419
e 18 446
e 18 454
e 18 458
e 18 469
e 18 504
e 18 541
e 18 542
e 18 544
e 18 602
e 18 603
e 18 657
e 18 662
e 18 670
e 18 698
e 18 714
e 18 739
e 18 809
e 18 818
e 18 820
e 18 888
e 18 938
e 18 976
e 19 257
e 19 259
e 19 260
e 19 275
e 19 279
e 19 280
e 19 311
e 19 325
e 19 346
e 19 383
e 19 421
e 19 432
e 19 454
e 19 458
e 19 501
e 19 519
e 19 521
e 19 527
e 19 536
e 19 563
e 19 572
e 19 615
e 19 624
e 19 646
e 19 650
e 19 652
e 19 657
e 19 691
e 19 725
e 19 727
e 19 732
e 19 733
e 19 751
e 19 753
e 19 765
e 19 773
e 19 774
e 19 776
e 19 794
e 19 800
e 19 849
e 19 859
e 19 876
e 19 879
e 19 927
e 19 948
e 19 977
e 19 980
e 19 997
e 20 287
e 20 299
e 20 323
e 20 352
e 20 380
e 20 392
e 20 412
e 20 470
e 20 504
e 20 507
e 20 513
e 20 577
e 20 597
e 20 614
e 20 643
e 20 648
e 20 662
e 20 691
e 20 723
e 20 766
e 20 792
e 20 798
e 20 816
e 20 838
e 20 839
e 20 853
e 20 915
e 20 921
e 20 954
e 21 252
e 21 277
e 21 280
e 21 285
e 21 289
e 21 290
e 21 291
e 21 313
e 21 334
e 21 335
e 21 343
e 21 351
e 21 360
e 21 365
e 21 399
e 21 401
e 21 416
e 21 428
e 21 454
e 21 479
e 21 487
e 21 500
e 21 519
e 21 545
e 21 573
e 21 588
e 21 611
e 21 612
e 21 671
e 21 675
e 21 679
e 21 687
e 21 697
e 21 702
e 21 714
e 21 739
e 21 747
e 21 759
e 21 789
e 21 796
e 21 797
e 21 873
e 21 885
e 21 886
e 21 890
e 21 912
e 21 913
e 21 918
e 21 925
e 21 928
e 21 944
e 21 945
e 21 949
e 21 982
e 22 251
e 22 285
e 22 301
e 22 367
e 22 369
e 22 377
e 22 384
e 22 415
e 22 452
e 22 466
e 22 492
e 22 500
e 22 541
e 22 546
e 22 578
e 22 612
e 22 671
e 22 674
e 22 694
e 22 700
e 22 714
e 22 719
e 22 723
e 22 758
e 22 760
e 22 773
e 22 779
e 22 796
e 22 882
e 22 888
e 22 898
e 22 901
e 22 922
e 22 937
e 22 960
e 22 974
e 22 990
e 22 991
e 23 253
e 23 271
e 23 328
e 23 338
e 23 368
e 23 396
e 23 404
e 23 405
e 23 412
e 23 416
e 23 434
e 23 456
e 23 477
e 23 489
e 23 490
e 23 504
e 23 508
e 23 524
e 23 535
e 23 536
e 23 567
e 23 632
e 23 641
e 23 662
e 23 701
e 23 753
e 23 758
e 23 772
e 23 805
e 23 815
e 23 841
e 23 842
e 23 855
e 23 874
e 23 938
e 24 275
e 24 276
e 24 313
e 24 365
e 24 366
e 24 372
e 24 418
e 24 448
e 24 460
e 24 503
e 24 506
e 24 508
e 24 514
e 24 572
e 24 591
e 24 594
e 24 598
e 24 632
e 24 661
e 24 668
e 24 690
e 24 691
e 24 699
e 24 770
e 24 803
e 24 826
e 24 838
e 24 846
e 24 864
e 24 881
e 24 939
e 24 956
e 24 959
e 24 965
e 24 982
e 24 1000
e 25 258
e 25 313
e 25 378
e 25 382
e 25 399
e 25 400
e 25 422
e 25 443
e 25 466
e 25 519
e 25 529
e 25 594
e 25 595
e 25 616
e 25 617
e 25 647
e 25 658
e 25 663
e 25 699
e 25 741
e 25 776
e 25 788
e 25 794
e 25 818
e 25 882
e 25 900
e 25 904
e 25 938
e 25 985
e 25 986
e 26 275
e 26 277
e 26 283
e 26 285
e 26 303
e 26 328
e 26 339
e 26 340
e 26 350
e 26 366
e 26 447
e 26 448
e 26 453
e 26 471
e 26 501
e 26 502
e 26 544
e 26 545
e 26 553
e 26 556
e 26 561
e 26 568
e 26 573
e 26 586
e 26 598
e 26 608
e 26 615
e 26 633
e 26 699
e 26 713
e 26 746
e 26 764
e 26 798
e 26 855
e 26 881
e 26 895
e 26 920
e 26 927
e 26 967
e 27 251
e 27 276
e 27 288
e 27 336
e 27 337
e 27 357
e 27 396
e 27 399
e 27 430
e 27 439
e 27 444
e 27 472
e 27 498
e 27 508
e 27 510
e 27 524
e 27 531
e 27 533
e 27 544
e 27 549
e 27 567
e 27 569
e 27 581
e 27 615
e 27 676
e 27 699
e 27 725
e 27 727
e 27 731
e 27 742
e 27 779
e 27 784
e 27 790
e 27 794
e 27 809
e 27 817
e 27 830
e 27 836
e 27 866
e 27 871
e 27 882
e 27 913
e 27 929
e 27 931
e 27 932
e 27 968
e 27 992
e 28 280
e 28 284
e 28 289
e 28 298
e 28 301
e 28 303
e 28 309
e 28 321
e 28 326
e 28 408
e 28 425
e 28 427
e 28 441
e 28 457
e 28 466
e 28 497
e 28 599
e 28 610
e 28 626
e 28 637
e 28 659
e 28 668
e 28 675
e 28 676
e 28 678
e 28 682
e 28 691
e 28 695
e 28 733
e 28 745
e 28 763
e 28 784
e 28 807
e 28 835
e 28 840
e 28 842
e 28 853
e 28 854
e 28 879
e 28 913
e 28 922
e 28 936
e 28 938
e 28 947
e 28 951
e 28 961
e 28 992
e 29 265
e 29 288
e 29 327
e 29 332
e 29 354
e 29 368
e 29 369
e 29 374
e 29 387
e 29 388
e 29 404
e 29 409
e 29 424
e 29 449
e 29 462
e 29 478
e 29 533
e 29 540
e 29 543
e 29 545
e 29 547
e 29 550
e 29 574
e 29 592
e 29 615
e 29 620
e 29 652
e 29 658
e 29 678
e 29 679
e 29 694
e 29 704
e 29 714
e 29 737
e 29 806
e 29 826
e 29 850
e 29 935
e 29 938
e 29 958
e 29 986
e 29 988
e 30 276
e 30 289
e 30 324
e 30 341
e 30 346
e 30 375
e 30 379
e 30 384
e 30 393
e 30 446
e 30 455
e 30 457
e 30 461
e 30 466
e 30 481
e 30 487
e 30 515
e 30 543
e 30 583
e 30 594
e 30 619
e 30 627
e 30 640
e 30 646
e 30 687
e 30 696
e 30 698
e 30 702
e 30 709
e 30 717
e 30 720
e 30 763
e 30 791
e 30 802
e 30 808
e 30 845
e 30 847
e 30 857
e 30 877
e 30 900
e 30 932
e 30 978
e 30 986
e 30 994
e 30 996
e 31 261
e 31 263
e 31 264
e 31 266
e 31 275
e 31 287
e 31 328
e 31 366
e 31 381
e 31 397
e 31 405
e 31 408
e 31 409
e 31 418
e 31 445
e 31 462
e 31 475
e 31 476
e 31 499
e 31 521
e 31 553
e 31 562
e 31 565
e 31 579
e 31 599
e 31 657
e 31 671
e 31 680
e 31 699
e 31 701
e 31 705
e 31 715
e 31 722
e 31 738
e 31 750
e 31 842
e 31 852
e 31 901
e 31 902
e 31 906
e 31 909
e 31 942
e 31 945
e 31 977
e 32 291
e 32 302
e 32 345
e 32 381
e 32 399
e 32 400
e 32 454
e 32 471
e 32 484
e 32 517
e 32 539
e 32 556
e 32 571
e 32 577
e 32 605
e 32 609
e 32 611
e 32 639
e 32 682
e 32 692
e 32 741
e 32 743
e 32 798
e 32 804
e 32 831
e 32 833
e 32 877
e 32 886
e 32 954
e 32 962
e 32 989
e 33 276
e 33 311
e 33 331
e 33 334
e 33 341
e 33 374
e 33 395
e 33 421
e 33 422
e 33 457
e 33 477
e 33 539
e 33 545
e 33 624
e 33 633
e 33 638
e 33 661
e 33 684
e 33 687
e 33 757
e 33 802
e 33 831
e 33 849
e 33 882
e 33 909
e 33 927
e 33 943
e 33 954
e 33 963
e 33 968
e 33 979
e 33 983
e 33 984
e 33 992
e 34 255
e 34 288
e 34 350
e 34 387
e 34 403
e 34 404
e 34 442
e 34 473
e 34 488
e 34 503
e 34 511
e 34 540
e 34 569
e 34 593
e 34 612
e 34 632
e 34 644
e 34 683
e 34 701
e 34 731
e 34 744
e 34 788
e 34 821
e 34 841
e 34 870
e 34 905
e 34 913
e 34 917
e 34 937
e 34 951
e 35 322
e 35 366
e 35 404
e 35 460
e 35 471
e 35 494
e 35 504
e 35 509
e 35 532
e 35 568
e 35 575
e 35 600
e 35 613
e 35 616
e 35 628
e 35 632
e 35 637
e 35 660
e 35 661
e 35 665
e 35 670
e 35 687
e 35 695
e 35 710
e 35 752
e 35 780
e 35 788
e 35 803
e 35 829
e 35 838
e 35 886
e 35 899
e 35 905
e 35 918
e 35 949
e 35 957
e 35 970
e 35 974
e 36 277
e 36 316
e 36 341
e 36 371
e 36 394
e 36 399
e 36 420
e 36 436
e 36 450
e 36 451
e 36 504
e 36 525
e 36 540
e 36 578
e 36 644
e 36 658
e 36 672
e 36 690
e 36 700
e 36 703
e 36 762
e 36 775
e 36 892
e 36 907
e 36 932
e 37 260
e 37 291
e 37 293
e 37 344
e 37 348
e 37 390
e 37 395
e 37 465
e 37 476
e 37 513
e 37 548
e 37 560
e 37 580
e 37 601
e 37 610
e 37 624
e 37 627
e 37 630
e 37 640
e 37 647
e 37 653
e 37 656
e 37 686
e 37 696
e 37 697
e 37 700
e 37 737
e 37 751
e 37 759
e 37 799
e 37 851
e 37 865
e 37 869
e 37 877
e 37 901
e 37 933
e 37 958
e 37 989
e 37 993
e 38 264
e 38 265
e 38 286
e 38 294
e 38 305
e 38 309
e 38 334
e 38 349
e 38 358
e 38 369
e 38 371
e 38 372
e 38 416
e 38 427
e 38 432
e 38 436
e 38 465
e 38 528
e 38 553
e 38 557
e 38 578
e 38 586
e 38 589
e 38 620
e 38 634
e 38 679
e 38 682
e 38 701
e 38 723
e 38 734
e 38 738
e 38 744
e 38 773
e 38 805
e 38 819
e 38 820
e 38 850
e 38 891
e 38 896
e 38 905
e 38 925
e 38 929
e 38 935
e 38 944
e 38 965
e 38 974
e 39 333
e 39 345
e 39 367
e 39 370
e 39 382
e 39 445
e 39 457
e 39 459
e 39 481
e 39 486
e 39 495
e 39 536
e 39 569
e 39 571
e 39 588
e 39 599
e 39 608
e 39 628
e 39 697
e 39 729
e 39 732
e 39 817
e 39 829
e 39 833
e 39 845
e 39 850
e 39 869
e 39 882
e 39 893
e 39 915
e 39 917
e 39 923
e 39 938
e 39 980
e 39 984
e 40 262
e 40 268
e 40 287
e 40 307
e 40 317
e 40 325
e 40 363
e 40 429
e 40 450
e 40 457
e 40 484
e 40 565
e 40 591
e 40 595
e 40 605
e 40 612
e 40 619
e 40 627
e 40 631
e 40 638
e 40 650
e 40 673
e 40 708
e 40 715
e 40 719
e 40 766
e 40 774
e 40 781
e 40 804
e 40 866
e 40 891
e 40 909
e 40 923
e 40 931
e 40 932
e 40 973
e 40 980
e 40 982
e 40 985
e 41 254
e 41 256
e 41 327
e 41 331
e 41 344
e 41 454
e 41 491
e 41 501
e 41 580
e 41 620
e 41 630
e 41 677
e 41 679
e 41 705
e 41 716
e 41 720
e 41 774
e 41 781
e 41 800
e 41 801
e 41 810
e 41 811
e 41 813
e 41 815
e 41 821
e 41 859
e 41 887
e 41 930
e 41 938
e 41 997
e 42 266
e 42 272
e 42 306
e 42 325
e 42 332
e 42 346
e 42 362
e 42 390
e 42 414
e 42 420
e 42 435
e 42 462
e 42 467
e 42 481
e 42 492
e 42 522
e 42 548
e 42 551
e 42 560
e 42 574
e 42 606
e 42 656
e 42 659
e 42 682
e 42 685
e 42 714
e 42 718
e 42 813
e 42 820
e 42 856
e 42 916
e 42 955
e 42 979
e 43 257
e 43 279
e 43 291
e 43 315
e 43 320
e 43 331
e 43 375
e 43 392
e 43 440
e 43 492
e 43 501
e 43 546
e 43 569
e 43 574
e 43 589
e 43 605
e 43 628
e 43 635
e 43 638
e 43 641
e 43 642
e 43 663
e 43 685
e 43 751
e 43 756
e 43 775
e 43 780
e 43 783
e 43 785
e 43 816
e 43 818
e 43 837
e 43 852
e 43 860
e 43 862
e 43 863
e 43 873
e 43 898
e 43 911
e 43 921
e 43 938
e 43 953
e 43 993
e 44 273
e 44 299
e 44 307
e 44 308
e 44 320
e 44 331
e 44 337
e 44 350
e 44 352
e 44 400
e 44 405
e 44 407
e 44 422
e 44 435
e 44 493
e 44 555
e 44 582
e 44 618
e 44 621
e 44 668
e 44 673
e 44 687
e 44 728
e 44 745
e 44 772
e 44 785
e 44 790
e 44 793
e 44 859
e 44 905
e 44 931
e 44 938
e 44 943
e 44 980
e 45 269
e 45 271
e 45 274
e 45 319
e 45 347
e 45 358
e 45 386
e 45 410
e 45 411
e 45 415
e 45 421
e 45 446
e 45 467
e 45 483
e 45 504
e 45 506
e 45 519
e 45 556
e 45 562
e 45 573
e 45 582
e 45 591
e 45 600
e 45 636
e 45 649
e 45 653
e 45 659
e 45 661
e 45 667
e 45 716
e 45 766
e 45 781
e 45 823
e 45 843
e 45 857
e 45 887
e 45 909
e 45 943
e 45 948
e 45 994
e 46 251
e 46 310
e 46 320
e 46 343
e 46 368
e 46 375
e 46 410
e 46 416
e 46 424
e 46 428
e 46 453
e 46 458
e 46 487
e 46 490
e 46 523
e 46 530
e 46 535
e 46 594
e 46 614
e 46 623
e 46 637
e 46 639
e 46 648
e 46 684
e 46 695
e 46 699
e 46 722
e 46 733
e 46 740
e 46 752
e 46 766
e 46 769
e 46 776
e 46 781
e 46 788
e 46 822
e 46 826
e 46 851
e 46 931
e 46 934
e 46 935
e 46 940
e 46 942
e 46 957
e 46 962
e 47 257
e 47 258
e 47 265
e 47 276
e 47 283
e 47 318
e 47 327
e 47 369
e 47 396
e 47 400
e 47 446
e 47 449
e 47 456
e 47 467
e 47 470
e 47 490
e 47 500
e 47 530
e 47 541
e 47 563
e 47 564
e 47 575
e 47 589
e 47 598
e 47 621
e 47 633
e 47 657
e 47 675
e 47 707
e 47 714
e 47 770
e 47 773
e 47 774
e 47 776
e 47 781
e 47 782
e 47 800
e 47 801
e 47 918
e 47 938
e 47 942
e 48 310
e 48 311
e 48 320
e 48 321
e 48 328
e 48 353
e 48 368
e 48 370
e 48 426
e 48 458
e 48 464
e 48 483
e 48 486
e 48 495
e 48 518
e 48 524
e 48 537
e 48 585
e 48 587
e 48 612
e 48 614
e 48 634
e 48 674
e 48 680
e 48 683
e 48 699
e 48 734
e 48 741
e 48 749
e 48 758
e 48 808
e 48 878
e 48 879
e 48 895
e 48 907
e 48 948
e 48 950
e 48 954
e 48 991
e 48 993
e 49 277
e 49 289
e 49 298
e 49 335
e 49 369
e 49 376
e 49 400
e 49 407
e 49 439
e 49 447
e 49 449
e 49 490
e 49 494
e 49 505
e 49 513
e 49 542
e 49 549
e 49 589
e 49 609
e 49 634
e 49 643
e 49 648
e 49 650
e 49 683
e 49 701
e 49 742
e 49 787
e 49 811
e 49 818
e 49 857
e 49 867
e 49 871
e 49 896
e 49 909
e 49 941
e 49 968
e 49 973
e 49 989
e 49 996
e 50 251
e 50 271
e 50 291
e 50 329
e 50 330
e 50 392
e 50 402
e 50 437
e 50 469
e 50 476
e 50 484
e 50 500
e 50 504
e 50 506
e 50 510
e 50 552
e 50 563
e 50 603
e 50 610
e 50 611
e 50 614
e 50 631
e 50 658
e 50 691
e 50 712
e 50 749
e 50 776
e 50 846
e 50 900
e 50 920
e 50 928
e 50 962
e 50 970
e 50 983
e 50 989
e 50 990
e 50 1000
e 51 269
e 51 282
e 51 334
e 51 347
e 51 365
e 51 383
e 51 412
e 51 432
e 51 460
e 51 470
e 51 474
e 51 555
e 51 576
e 51 580
e 51 601
e 51 666
e 51 690
e 51 694
e 51 711
e 51 713
e 51 771
e 51 789
e 51 810
e 51 839
e 51 844
e 51 904
e 51 923
e 51 926
e 51 929
e 51 940
e 51 971
e 52 269
e 52 280
e 52 287
e 52 307
e 52 311
e 52 324
e 52 329
e 52 340
e 52 355
e 52 356
e 52 380
e 52 418
e 52 435
e 52 474
e 52 520
e 52 529
e 52 551
e 52 556
e 52 563
e 52 593
e 52 600
e 52 607
e 52 654
e 52 659
e 52 691
e 52 696
e 52 699
e 52 710
e 52 807
e 52 808
e 52 840
e 52 924
e 52 935
e 52 939
e 52 947
e 52 951
e 52 971
e 52 982
e 52 990
e 52 992
e 53 341
e 53 351
e 53 359
e 53 378
e 53 386
e 53 387
e 53 399
e 53 403
e 53 408
e 53 416
e 53 426
e 53 465
e 53 474
e 53 519
e 53 538
e 53 560
e 53 601
e 53 606
e 53 612
e 53 657
e 53 733
e 53 763
e 53 823
e 53 864
e 53 875
e 53 900
e 53 907
e 53 912
e 53 928
e 53 936
e 53 943
e 53 949
e 53 967
e 53 987
e 54 273
e 54 293
e 54 295
e 54 313
e 54 325
e 54 327
e 54 335
e 54 360
e 54 361
e 54 362
e 54 482
e 54 492
e 54 507
e 54 512
e 54 528
e 54 569
e 54 605
e 54 649
e 54 703
e 54 718
e 54 761
e 54 767
e 54 784
e 54 823
e 54 824
e 54 825
e 54 834
e 54 841
e 54 844
e 54 846
e 54 864
e 54 865
e 54 876
e 54 886
e 54 921
e 54 953
e 54 968
e 54 991
e 55 275
e 55 281
e 55 282
e 55 291
e 55 295
e 55 312
e 55 328
e 55 338
e 55 357
e 55 360
e 55 384
e 55 396
e 55 398
e 55 401
e 55 439
e 55 508
e 55 512
e 55 513
e 55 517
e 55 545
e 55 560
e 55 634
e 55 665
e 55 674
e 55 688
e 55 690
e 55 762
e 55 770
e 55 771
e 55 790
e 55 832
e 55 858
e 55 865
e 55 875
e 55 917
e 55 956
e 55 958
e 55 969
e 55 973
e 55 999
e 56 261
e 56 264
e 56 276
e 56 277
e 56 356
e 56 372
e 56 387
e 56 434
e 56 435
e 56 436
e 56 455
e 56 515
e 56 518
e 56 538
e 56 559
e 56 586
e 56 596
e 56 605
e 56 606
e 56 653
e 56 655
e 56 685
e 56 713
e 56 730
e 56 749
e 56 770
e 56 791
e 56 803
e 56 831
e 56 836
e 56 837
e 56 890
e 56 906
e 56 918
e 56 941
e 56 948
e 57 324
e 57 329
e 57 335
e 57 362
e 57 379
e 57 398
e 57 409
e 57 431
e 57 450
e 57 458
e 57 475
e 57 505
e 57 532
e 57 575
e 57 583
e 57 592
e 57 631
e 57 651
e 57 657
e 57 701
e 57 702
e 57 720
e 57 781
e 57 783
e 57 792
e 57 810
e 57 823
e 57 835
e 57 852
e 57 889
e 57 930
e 57 932
e 57 933
e 57 953
e 57 964
e 57 970
e 57 974
e 57 979
e 58 252
e 58 278
e 58 286
e 58 302
e 58 311
e 58 320
e 58 338
e 58 376
e 58 387
e 58 441
e 58 444
e 58 462
e 58 484
e 58 555
e 58 558
e 58 560
e 58 567
e 58 568
e 58 591
e 58 629
e 58 650
e 58 660
e 58 704
e 58 709
e 58 714
e 58 737
e 58 752
e 58 759
e 58 802
e 58 822
e 58 842
e 58 858
e 58 859
e 58 862
e 58 883
e 58 890
e 58 899
e 58 931
e 59 265
e 59 296
e 59 301
e 59 321
e 59 339
e 59 394
e 59 445
e 59 449
e 59 478
e 59 493
e 59 513
e 59 518
e 59 521
e 59 546
e 59 554
e 59 557
e 59 585
e 59 603
e 59 606
e 59 633
e 59 662
e 59 707
e 59 735
e 59 744
e 59 747
e 59 768
e 59 776
e 59 782
e 59 809
e 59 813
e 59 825
e 59 868
e 59 924
e 59 929
e 59 968
e 59 971
e 59 973
e 60 252
e 60 321
e 60 343
e 60 345
e 60 373
e 60 377
e 60 402
e 60 416
e 60 424
e 60 442
e 60 448
e 60 451
e 60 454
e 60 486
e 60 501
e 60 529
e 60 575
e 60 595
e 60 611
e 60 631
e 60 634
e 60 640
e 60 649
e 60 656
e 60 697
e 60 699
e 60 705
e 60 853
e 60 863
e 60 878
e 60 880
e 60 883
e 60 914
e 60 918
e 60 960
e 60 978
e 61 262
e 61 269
e 61 286
e 61 312
e 61 338
e 61 343
e 61 359
e 61 379
e 61 424
e 61 427
e 61 449
e 61 450
e 61 474
e 61 480
e 61 528
e 61 532
e 61 534
e 61 566
e 61 573
e 61 662
e 61 663
e 61 666
e 61 699
e 61 725
e 61 732
e 61 749
e 61 766
e 61 773
e 61 781
e 61 802
e 61 815
e 61 846
e 61 849
e 61 857
e 61 879
e 61 895
e 61 905
e 61 908
e 61 911
e 61 918
e 62 251
e 62 274
e 62 279
e 62 284
e 62 308
e 62 325
e 62 326
e 62 370
e 62 393
e 62 424
e 62 429
e 62 434
e 62 457
e 62 493
e 62 547
e 62 575
e 62 628
e 62 649
e 62 651
e 62 667
e 62 693
e 62 709
e 62 715
e 62 720
e 62 728
e 62 741
e 62 756
e 62 767
e 62 782
e 62 795
e 62 806
e 62 838
e 62 872
e 62 890
e 62 924
e 62 940
e 62 979
e 62 982
e 63 255
e 63 258
e 63 261
e 63 268
e 63 274
e 63 275
e 63 287
e 63 308
e 63 314
e 63 334
e 63 353
e 63 359
e 63 361
e 63 387
e 63 416
e 63 461
e 63 511
e 63 525
e 63 539
e 63 570
e 63 590
e 63 621
e 63 649
e 63 653
e 63 661
e 63 716
e 63 739
e 63 766
e 63 774
e 63 814
e 63 831
e 63 886
e 63 899
e 63 905
e 63 928
e 63 940
e 63 946
e 63 987
e 63 999
e 64 270
e 64 283
e 64 285
e 64 286
e 64 293
e 64 303
e 64 327
e 64 355
e 64 363
e 64 364
e 64 376
e 64 426
e 64 450
e 64 453
e 64 463
e 64 471
e 64 475
e 64 483
e 64 512
e 64 522
e 64 525
e 64 547
e 64 597
e 64 618
e 64 630
e 64 642
e 64 647
e 64 648
e 64 656
e 64 668
e 64 671
e 64 673
e 64 727
e 64 730
e 64 732
e 64 733
e 64 736
e 64 752
e 64 753
e 64 786
e 64 845
e 64 875
e 64 877
e 64 880
e 64 904
e 64 919
e 64 943
e 64 966
e 65 271
e 65 289
e 65 290
e 65 306
e 65 378
e 65 398
e 65 400
e 65 410
e 65 422
e 65 425
e 65 453
e 65 479
e 65 500
e 65 506
e 65 509
e 65 513
e 65 519
e 65 538
e 65 563
e 65 569
e 65 582
e 65 610
e 65 638
e 65 661
e 65 703
e 65 725
e 65 726
e 65 731
e 65 733
e 65 738
e 65 764
e 65 784
e 65 825
e 65 847
e 65 884
e 65 888
e 65 895
e 65 896
e 65 989
e 66 254
e 66 262
e 66 267
e 66 287
e 66 314
e 66 325
e 66 362
e 66 379
e 66 416
e 66 424
e 66 437
e 66 469
e 66 506
e 66 528
e 66 541
e 66 555
e 66 561
e 66 607
e 66 608
e 66 616
e 66 620
e 66 624
e 66 656
e 66 691
e 66 705
e 66 722
e 66 724
e 66 736
e 66 767
e 66 793
e 66 851
e 66 857
e 66 880
e 66 883
e 66 932
e 66 961
e 66 966
e 67 270
e 67 271
e 67 280
e 67 282
e 67 293
e 67 309
e 67 333
e 67 390
e 67 396
e 67 403
e 67 424
e 67 463
e 67 471
e 67 479
e 67 492
e 67 497
e 67 539
e 67 540
e 67 602
e 67 606
e 67 619
e 67 622
e 67 626
e 67 629
e 67 648
e 67 649
e 67 659
e 67 702
e 67 764
e 67 800
e 67 870
e 67 888
e 67 890
e 67 894
e 67 919
e 67 951
e 67 971
e 67 980
e 67 986
e 68 253
e 68 268
e 68 286
e 68 287
e 68 294
e 68 295
e 68 296
e 68 306
e 68 322
e 68 331
e 68 333
e 68 357
e 68 368
e 68 391
e 68 396
e 68 422
e 68 472
e 68 476
e 68 483
e 68 507
e 68 512
e 68 533
e 68 542
e 68 550
e 68 553
e 68 593
e 68 594
e 68 601
e 68 602
e 68 608
e 68 631
e 68 649
e 68 684
e 68 697
e 68 698
e 68 732
e 68 753
e 68 759
e 68 767
e 68 777
e 68 807
e 68 884
e 68 887
e 68 956
e 68 999
e 69 277
e 69 278
e 69 296
e 69 301
e 69 358
e 69 359
e 69 378
e 69 423
e 69 439
e 69 440
e 69 446
e 69 473
e 69 482
e 69 549
e 69 633
e 69 661
e 69 669
e 69 688
e 69 692
e 69 736
e 69 737
e 69 748
e 69 794
e 69 795
e 69 813
e 69 822
e 69 875
e 69 914
e 69 923
e 69 947
e 69 948
e 69 962
e 69 967
e 69 975
e 69 990
e 70 278
e 70 345
e 70 428
e 70 440
e 70 458
e 70 472
e 70 500
e 70 540
e 70 542
e 70 575
e 70 599
e 70 613
e 70 641
e 70 649
e 70 694
e 70 717
e 70 720
e 70 747
e 70 823
e 70 827
e 70 853
e 70 863
e 70 866
e 70 875
e 70 891
e 70 902
e 70 904
e 70 927
e 70 933
e 70 958
e 70 988
e 71 253
e 71 275
e 71 295
e 71 318
e 71 337
e 71 365
e 71 395
e 71 443
e 71 452
e 71 477
e 71 481
e 71 483
e 71 515
e 71 565
e 71 571
e 71 594
e 71 625
e 71 631
e 71 636
e 71 670
e 71 683
e 71 685
e 71 690
e 71 698
e 71 740
e 71 759
e 71 804
e 71 839
e 71 867
e 71 887
e 71 927
e 71 933
e 71 953
e 71 973
e 71 976
e 71 985
e 71 994
e 72 256
e 72 258
e 72 273
e 72 275
e 72 296
e 72 305
e 72 317
e 72 319
e 72 320
e 72 379
e 72 380
e 72 391
e 72 395
e 72 435
e 72 443
e 72 457
e 72 490
e 72 497
e 72 501
e 72 523
e 72 524
e 72 531
e 72 539
e 72 551
e 72 558
e 72 561
e 72 576
e 72 579
e 72 596
e 72 609
e 72 611
e 72 648
e 72 761
e 72 819
e 72 820
e 72 852
e 72 888
e 72 894
e 72 897
e 72 923
e 72 937
e 72 955
e 72 959
e 72 972
e 72 983
e 73 251
e 73 254
e 73 257
e 73 280
e 73 282
e 73 297
e 73 311
e 73 324
e 73 331
e 73 334
e 73 368
e 73 418
e 73 438
e 73 442
e 73 460
e 73 462
e 73 473
e 73 495
e 73 502
e 73 512
e 73 517
e 73 523
e 73 615
e 73 617
e 73 673
e 73 675
e 73 677
e 73 690
e 73 697
e 73 741
e 73 757
e 73 758
e 73 762
e 73 791
e 73 843
e 73 859
e 73 887
e 73 939
e 73 952
e 73 977
e 73 983
e 74 252
e 74 299
e 74 307
e 74 315
e 74 326
e 74 338
e 74 357
e 74 365
e 74 366
e 74 373
e 74 416
e 74 485
e 74 491
e 74 505
e 74 535
e 74 554
e 74 559
e 74 573
e 74 638
e 74 666
e 74 671
e 74 678
e 74 760
e 74 764
e 74 772
e 74 812
e 74 830
e 74 837
e 74 855
e 74 899
e 74 952
e 74 959
e 74 972
e 74 987
e 75 290
e 75 300
e 75 342
e 75 349
e 75 384
e 75 388
e 75 447
e 75 496
e 75 514
e 75 525
e 75 541
e 75 558
e 75 640
e 75 727
e 75 749
e 75 760
e 75 804
e 75 828
e 75 840
e 75 841
e 75 869
e 75 872
e 75 881
e 75 916
e 75 929
e 75 942
e 75 980
e 76 277
e 76 300
e 76 315
e 76 351
e 76 352
e 76 387
e 76 417
e 76 429
e 76 443
e 76 501
e 76 503
e 76 515
e 76 526
e 76 552
e 76 586
e 76 609
e 76 613
e 76 648
e 76 662
e 76 670
e 76 726
e 76 753
e 76 760
e 76 791
e 76 834
e 76 847
e 76 871
e 76 886
e 76 919
e 76 951
e 76 956
e 76 962
e 76 970
e 77 301
e 77 311
e 77 329
e 77 409
e 77 470
e 77 524
e 77 535
e 77 547
e 77 549
e 77 586
e 77 596
e 77 608
e 77 630
e 77 654
e 77 670
e 77 675
e 77 683
e 77 686
e 77 699
e 77 764
e 77 785
e 77 797
e 77 800
e 77 818
e 77 887
e 77 889
e 77 920
e 77 984
e 77 999
e 78 254
e 78 261
e 78 297
e 78 298
e 78 332
e 78 344
e 78 360
e 78 423
e 78 451
e 78 460
e 78 547
e 78 612
e 78 617
e 78 621
e 78 622
e 78 625
e 78 629
e 78 639
e 78 716
e 78 724
e 78 731
e 78 746
e 78 759
e 78 761
e 78 777
e 78 791
e 78 803
e 78 825
e 78 827
e 78 849
e 78 868
e 78 891
e 78 905
e 78 953
e 78 959
e 78 984
e 78 1000
e 79 255
e 79 272
e 79 280
e 79 326
e 79 335
e 79 388
e 79 412
e 79 452
e 79 488
e 79 495
e 79 500
e 79 504
e 79 509
e 79 511
e 79 514
e 79 546
e 79 568
e 79 581
e 79 604
e 79 609
e 79 614
e 79 632
e 79 676
e 79 714
e 79 739
e 79 761
e 79 767
e 79 794
e 79 838
e 79 845
e 79 896
e 79 928
e 80 271
e 80 274
e 80 332
e 80 341
e 80 361
e 80 386
e 80 390
e 80 426
e 80 429
e 80 482
e 80 483
e 80 500
e 80 501
e 80 511
e 80 551
e 80 591
e 80 674
e 80 675
e 80 718
e 80 729
e 80 746
e 80 783
e 80 795
e 80 812
e 80 862
e 80 886
e 80 890
e 80 896
e 80 898
e 80 905
e 80 965
e 81 276
e 81 288
e 81 298
e 81 306
e 81 319
e 81 337
e 81 342
e 81 354
e 81 359
e 81 373
e 81 388
e 81 399
e 81 411
e 81 434
e 81 458
e 81 474
e 81 522
e 81 525
e 81 609
e 81 618
e 81 653
e 81 673
e 81 677
e 81 682
e 81 699
e 81 736
e 81 750
e 81 778
e 81 795
e 81 821
e 81 858
e 81 864
e 81 915
e 81 948
e 81 973
e 81 999
e 82 275
e 82 276
e 82 278
e 82 301
e 82 305
e 82 335
e 82 407
e 82 412
e 82 455
e 82 464
e 82 476
e 82 480
e 82 500
e 82 502
e 82 512
e 82 550
e 82 576
e 82 591
e 82 592
e 82 593
e 82 601
e 82 615
e 82 632
e 82 635
e 82 650
e 82 663
e 82 665
e 82 672
e 82 675
e 82 705
e 82 730
e 82 771
e 82 796
e 82 801
e 82 855
e 82 877
e 82 884
e 82 890
e 82 899
e 82 902
e 82 923
e 82 943
e 82 963
e 82 999
e 83 259
e 83 261
e 83 262
e 83 267
e 83 279
e 83 291
e 83 294
e 83 341
e 83 347
e 83 367
e 83 397
e 83 432
e 83 444
e 83 489
e 83 535
e 83 546
e 83 554
e 83 586
e 83 591
e 83 597
e 83 613
e 83 615
e 83 633
e 83 635
e 83 647
e 83 670
e 83 692
e 83 732
e 83 734
e 83 747
e 83 759
e 83 766
e 83 767
e 83 800
e 83 825
e 83 828
e 83 848
e 83 863
e 83 876
e 83 889
e 83 896
e 83 914
e 83 940
e 84 260
e 84 311
e 84 313
e 84 316
e 84 358
e 84 369
e 84 406
e 84 418
e 84 427
e 84 443
e 84 444
e 84 515
e 84 542
e 84 556
e 84 588
e 84 596
e 84 678
e 84 718
e 84 731
e 84 744
e 84 747
e 84 759
e 84 782
e 84 789
e 84 790
e 84 797
e 84 801
e 84 813
e 84 867
e 84 896
e 84 908
e 84 944
e 84 947
e 84 956
e 84 961
e 84 978
e 84 988
e 84 997
e 85 274
e 85 310
e 85 339
e 85 370
e 85 377
e 85 378
e 85 415
e 85 420
e 85 436
e 85 452
e 85 486
e 85 490
e 85 493
e 85 497
e 85 508
e 85 510
e 85 534
e 85 556
e 85 560
e 85 562
e 85 567
e 85 570
e 85 572
e 85 599
e 85 623
e 85 639
e 85 652
e 85 662
e 85 713
e 85 734
e 85 735
e 85 765
e 85 766
e 85 776
e 85 780
e 85 797
e 85 808
e 85 835
e 85 839
e 85 874
e 85 892
e 85 903
e 85 911
e 85 913
e 85 923
e 85 958
e 85 977
e 86 255
e 86 261
e 86 346
e 86 349
e 86 372
e 86 374
e 86 386
e 86 397
e 86 421
e 86 440
e 86 476
e 86 477
e 86 482
e 86 492
e 86 501
e 86 502
e 86 516
e 86 559
e 86 581
e 86 583
e 86 592
e 86 593
e 86 606
e 86 613
e 86 663
e 86 690
e 86 754
e 86 756
e 86 763
e 86 796
e 86 811
e 86 820
e 86 824
e 86 890
e 86 900
e 86 929
e 86 930
e 86 960
e 86 988
e 87 266
e 87 291
e 87 360
e 87 380
e 87 392
e 87 430
e 87 439
e 87 454
e 87 464
e 87 465
e 87 497
e 87 545
e 87 546
e 87 593
e 87 605
e 87 635
e 87 643
e 87 657
e 87 659
e 87 674
e 87 689
e 87 731
e 87 743
e 87 756
e 87 771
e 87 787
e 87 803
e 87 818
e 87 821
e 87 826
e 87 831
e 87 837
e 87 914
e 87 931
e 87 951
e 87 953
e 87 970
e 88 258
e 88 272
e 88 285
e 88 292
e 88 339
e 88 340
e 88 349
e 88 356
e 88 402
e 88 405
e 88 419
e 88 464
e 88 473
e 88 519
e 88 522
e 88 524
e 88 541
e 88 552
e 88 573
e 88 598
e 88 605
e 88 615
e 88 620
e 88 633
e 88 664
e 88 760
e 88 788
e 88 848
e 88 870
e 88 907
e 88 908
e 88 926
e 88 959
e 88 981
e 88 986
e 88 996
e 89 269
e 89 279
e 89 285
e 89 305
e 89 383
e 89 403
e 89 404
e 89 479
e 89 486
e 89 496
e 89 503
e 89 513
e 89 514
e 89 517
e 89 538
e 89 574
e 89 635
e 89 664
e 89 691
e 89 693
e 89 700
e 89 717
e 89 755
e 89 757
e 89 775
e 89 792
e 89 824
e 89 829
e 89 849
e 89 863
e 89 866
e 89 868
e 89 883
e 89 887
e 89 914
e 89 915
e 89 942
e 89 960
e 89 997
e 90 252
e 90 266
e 90 285
e 90 321
e 90 348
e 90 407
e 90 421
e 90 441
e 90 451
e 90 464
e 90 473
e 90 501
e 90 506
e 90 508
e 90 544
e 90 554
e 90 556
e 90 560
e 90 567
e 90 600
e 90 606
e 90 609
e 90 614
e 90 618
e 90 648
e 90 653
e 90 659
e 90 660
e 90 674
e 90 686
e 90 714
e 90 723
e 90 770
e 90 774
e 90 783
e 90 787
e 90 788
e 90 790
e 90 795
e 90 799
e 90 800
e 90 803
e 90 815
e 90 832
e 90 833
e 90 848
e 90 851
e 90 870
e 90 881
e 90 901
e 90 910
e 90 924
e 90 930
e 90 946
e 90 956
e 90 960
e 90 975
e 90 989
e 91 290
e 91 292
e 91 332
e 91 335
e 91 336
e 91 362
e 91 408
e 91 436
e 91 451
e 91 455
e 91 471
e 91 514
e 91 557
e 91 560
e 91 568
e 91 579
e 91 590
e 91 609
e 91 668
e 91 669
e 91 682
e 91 723
e 91 767
e 91 769
e 91 773
e 91 787
e 91 805
e 91 808
e 91 813
e 91 816
e 91 831
e 91 872
e 91 874
e 91 877
e 91 932
e 91 933
e 91 953
e 91 967
e 91 998
e 92 263
e 92 353
e 92 378
e 92 398
e 92 405
e 92 409
e 92 429
e 92 445
e 92 480
e 92 499
e 92 515
e 92 519
e 92 535
e 92 541
e 92 578
e 92 581
e 92 661
e 92 698
e 92 702
e 92 745
e 92 755
e 92 773
e 92 787
e 92 797
e 92 834
e 92 837
e 92 854
e 92 864
e 92 877
e 92 892
e 92 894
e 92 908
e 92 914
e 92 970
e 92 976
e 92 997
e 93 272
e 93 304
e 93 325
e 93 351
e 93 369
e 93 371
e 93 382
e 93 383
e 93 404
e 93 433
e 93 486
e 93 500
e 93 510
e 93 525
e 93 547
e 93 549
e 93 550
e 93 553
e 93 560
e 93 570
e 93 580
e 93 582
e 93 586
e 93 599
e 93 607
e 93 683
e 93 684
e 93 705
e 93 714
e 93 745
e 93 779
e 93 810
e 93 842
e 93 869
e 93 943
e 94 268
e 94 275
e 94 290
e 94 320
e 94 339
e 94 344
e 94 381
e 94 390
e 94 392
e 94 415
e 94 424
e 94 430
e 94 499
e 94 511
e 94 539
e 94 555
e 94 562
e 94 576
e 94 600
e 94 625
e 94 629
e 94 637
e 94 640
e 94 646
e 94 649
e 94 654
e 94 656
e 94 681
e 94 707
e 94 725
e 94 734
e 94 751
e 94 754
e 94 784
e 94 805
e 94 816
e 94 827
e 94 857
e 94 864
e 94 883
e 94 891
e 94 904
e 94 906
e 94 910
e 94 963
e 94 973
e 94 993
e 95 252
e 95 316
e 95 380
e 95 403
e 95 418
e 95 420
e 95 429
e 95 459
e 95 463
e 95 496
e 95 497
e 95 500
e 95 524
e 95 531
e 95 568
e 95 574
e 95 587
e 95 602
e 95 606
e 95 647
e 95 672
e 95 679
e 95 684
e 95 697
e 95 725
e 95 753
e 95 769
e 95 821
e 95 928
e 95 933
e 95 965
e 95 982
e 96 254
e 96 300
e 96 303
e 96 333
e 96 349
e 96 354
e 96 374
e 96 375
e 96 394
e 96 408
e 96 413
e 96 427
e 96 429
e 96 440
e 96 443
e 96 444
e 96 498
e 96 529
e 96 552
e 96 553
e 96 568
e 96 573
e 96 579
e 96 686
e 96 703
e 96 704
e 96 715
e 96 726
e 96 764
e 96 781
e 96 816
e 96 821
e 96 864
e 96 867
e 96 914
e 96 925
e 96 949
e 96 988
e 96 995
e 96 999
e 97 347
e 97 398
e 97 444
e 97 451
e 97 453
e 97 507
e 97 508
e 97 552
e 97 568
e 97 587
e 97 604
e 97 652
e 97 666
e 97 668
e 97 690
e 97 694
e 97 705
e 97 729
e 97 733
e 97 745
e 97 758
e 97 769
e 97 773
e 97 775
e 97 790
e 97 835
e 97 847
e 97 970
e 97 973
e 97 994
e 98 271
e 98 272
e 98 318
e 98 334
e 98 369
e 98 371
e 98 372
e 98 377
e 98 383
e 98 395
e 98 399
e 98 403
e 98 456
e 98 472
e 98 493
e 98 519
e 98 612
e 98 654
e 98 679
e 98 736
e 98 779
e 98 828
e 98 841
e 98 854
e 98 865
e 98 877
e 98 885
e 98 899
e 98 905
e 98 912
e 98 963
e 98 1000
e 99 258
e 99 265
e 99 300
e 99 305
e 99 326
e 99 390
e 99 399
e 99 426
e 99 435
e 99 465
e 99 478
e 99 481
e 99 502
e 99 539
e 99 558
e 99 568
e 99 623
e 99 635
e 99 672
e 99 683
e 99 713
e 99 718
e 99 735
e 99 789
e 99 804
e 99 808
e 99 815
e 99 848
e 99 856
e 99 859
e 99 913
e 99 941
e 99 942
e 99 958
e 99 966
e 99 988
e 99 994
e 100 263
e 100 267
e 100 301
e 100 309
e 100 322
e 100 344
e 100 346
e 100 371
e 100 372
e 100 376
e 100 380
e 100 449
e 100 467
e 100 479
e 100 491
e 100 496
e 100 499
e 100 534
e 100 570
e 100 584
e 100 612
e 100 624
e 100 655
e 100 676
e 100 693
e 100 712
e 100 720
e 100 739
e 100 785
e 100 794
e 100 809
e 100 835
e 100 852
e 100 853
e 100 893
e 100 901
e 100 956
e 100 958
e 100 979
e 100 981
e 101 256
e 101 278
e 101 283
e 101 298
e 101 331
e 101 352
e 101 467
e 101 474
e 101 477
e 101 483
e 101 492
e 101 524
e 101 557
e 101 580
e 101 606
e 101 623
e 101 630
e 101 657
e 101 663
e 101 692
e 101 759
e 101 779
e 101 808
e 101 860
e 101 862
e 101 874
e 101 887
e 101 921
e 102 293
e 102 309
e 102 354
e 102 360
e 102 362
e 102 440
e 102 449
e 102 460
e 102 487
e 102 495
e 102 498
e 102 502
e 102 518
e 102 539
e 102 606
e 102 651
e 102 758
e 102 763
e 102 790
e 102 816
e 102 831
e 102 837
e 102 853
e 102 885
e 102 890
e 102 934
e 102 943
e 102 947
e 102 959
e 102 985
e 102 986
e 102 987
e 102 995
e 103 263
e 103 264
e 103 267
e 103 284
e 103 295
e 103 296
e 103 338
e 103 353
e 103 472
e 103 501
e 103 546
e 103 549
e 103 553
e 103 570
e 103 592
e 103 599
e 103 617
e 103 675
e 103 695
e 103 705
e 103 710
e 103 712
e 103 714
e 103 743
e 103 779
e 103 796
e 103 810
e 103 820
e 103 904
e 103 914
e 103 918
e 103 928
e 103 944
e 103 954
e 103 971
e 104 259
e 104 272
e 104 276
e 104 287
e 104 314
e 104 342
e 104 347
e 104 373
e 104 384
e 104 389
e 104 407
e 104 437
e 104 445
e 104 487
e 104 508
e 104 517
e 104 530
e 104 552
e 104 555
e 104 557
e 104 598
e 104 606
e 104 643
e 104 659
e 104 681
e 104 683
e 104 719
e 104 723
e 104 748
e 104 760
e 104 773
e 104 851
e 104 856
e 104 894
e 104 899
e 104 911
e 104 913
e 104 914
e 104 941
e 104 966
e 104 976
e 104 987
e 104 998
e 105 265
e 105 271
e 105 294
e 105 299
e 105 342
e 105 360
e 105 396
e 105 401
e 105 462
e 105 511
e 105 549
e 105 562
e 105 589
e 105 594
e 105 595
e 105 602
e 105 611
e 105 620
e 105 634
e 105 636
e 105 645
e 105 651
e 105 656
e 105 666
e 105 702
e 105 773
e 105 795
e 105 798
e 105 802
e 105 835
e 105 840
e 105 858
e 105 867
e 105 889
e 105 895
e 105 915
e 105 921
e 105 928
e 105 947
e 105 981
e 106 293
e 106 325
e 106 430
e 106 442
e 106 449
e 106 513
e 106 529
e 106 532
e 106 547
e 106 549
e 106 558
e 106 580
e 106 593
e 106 627
e 106 642
e 106 662
e 106 704
e 106 708
e 106 715
e 106 729
e 106 747
e 106 751
e 106 777
e 106 778
e 106 779
e 106 782
e 106 790
e 106 806
e 106 822
e 106 849
e 106 868
e 106 900
e 106 941
e 106 943
e 106 978
e 107 325
e 107 340
e 107 385
e 107 388
e 107 402
e 107 409
e 107 414
e 107 438
e 107 446
e 107 457
e 107 472
e 107 495
e 107 509
e 107 510
e 107 551
e 107 557
e 107 561
e 107 604
e 107 608
e 107 627
e 107 700
e 107 707
e 107 723
e 107 738
e 107 763
e 107 778
e 107 787
e 107 824
e 107 845
e 107 849
e 107 850
e 107 868
e 107 877
e 107 879
e 107 935
e 107 989
e 108 279
e 108 293
e 108 328
e 108 336
e 108 347
e 108 348
e 108 397
e 108 401
e 108 481
e 108 483
e 108 484
e 108 509
e 108 584
e 108 611
e 108 620
e 108 629
e 108 631
e 108 649
e 108 660
e 108 663
e 108 670
e 108 694
e 108 702
e 108 741
e 108 774
e 108 781
e 108 788
e 108 792
e 108 808
e 108 814
e 108 817
e 108 827
e 108 828
e 108 837
e 108 847
e 108 861
e 108 888
e 108 936
e 108 948
e 108 953
e 108 969
e 108 981
e 108 995
e 109 252
e 109 276
e 109 313
e 109 360
e 109 386
e 109 395
e 109 402
e 109 432
e 109 452
e 109 455
e 109 457
e 109 463
e 109 475
e 109 544
e 109 552
e 109 568
e 109 584
e 109 598
e 109 629
e 109 653
e 109 669
e 109 750
e 109 759
e 109 786
e 109 787
e 109 788
e 109 816
e 109 818
e 109 825
e 109 843
e 109 844
e 109 871
e 109 898
e 109 915
e 109 921
e 109 962
e 109 976
e 109 987
e 109 991
e 109 1000
e 110 258
e 110 283
e 110 314
e 110 346
e 110 367
e 110 391
e 110 443
e 110 462
e 110 498
e 110 510
e 110 511
e 110 514
e 110 535
e 110 538
e 110 542
e 110 560
e 110 567
e 110 619
e 110 621
e 110 634
e 110 642
e 110 645
e 110 651
e 110 662
e 110 704
e 110 723
e 110 729
e 110 768
e 110 784
e 110 806
e 110 860
e 110 895
e 110 918
e 110 929
e 110 955
e 110 985
e 111 252
e 111 270
e 111 313
e 111 315
e 111 320
e 111 389
e 111 392
e 111 399
e 111 406
e 111 433
e 111 437
e 111 467
e 111 480
e 111 507
e 111 533
e 111 544
e 111 550
e 111 576
e 111 578
e 111 583
e 111 594
e 111 636
e 111 640
e 111 644
e 111 646
e 111 685
e 111 708
e 111 722
e 111 768
e 111 795
e 111 799
e 111 813
e 111 838
e 111 868
e 111 914
e 111 994
e 111 997
e 112 259
e 112 277
e 112 278
e 112 310
e 112 339
e 112 380
e 112 386
e 112 397
e 112 398
e 112 411
e 112 418
e 112 451
e 112 464
e 112 499
e 112 507
e 112 516
e 112 543
e 112 574
e 112 594
e 112 624
e 112 658
e 112 667
e 112 676
e 112 712
e 112 735
e 112 799
e 112 812
e 112 828
e 112 849
e 112 851
e 112 852
e 112 888
e 112 900
e 112 934
e 112 940
e 112 969
e 112 971
e 113 331
e 113 358
e 113 362
e 113 365
e 113 465
e 113 478
e 113 481
e 113 489
e 113 490
e 113 492
e 113 516
e 113 563
e 113 572
e 113 586
e 113 649
e 113 650
e 113 667
e 113 680
e 113 727
e 113 737
e 113 766
e 113 863
e 113 867
e 113 873
e 113 876
e 113 915
e 113 939
e 113 979
e 113 994
e 114 300
e 114 311
e 114 330
e 114 334
e 114 364
e 114 381
e 114 391
e 114 493
e 114 520
e 114 522
e 114 532
e 114 563
e 114 590
e 114 608
e 114 632
e 114 636
e 114 656
e 114 658
e 114 683
e 114 685
e 114 705
e 114 737
e 114 742
e 114 751
e 114 761
e 114 765
e 114 774
e 114 776
e 114 796
e 114 827
e 114 835
e 114 869
e 114 909
e 114 923
e 114 926
e 114 929
e 114 948
e 114 956
e 114 971
e 115 253
e 115 255
e 115 271
e 115 280
e 115 319
e 115 328
e 115 344
e 115 349
e 115 355
e 115 374
e 115 379
e 115 382
e 115 384
e 115 404
e 115 407
e 115 426
e 115 443
e 115 452
e 115 490
e 115 500
e 115 534
e 115 563
e 115 603
e 115 639
e 115 648
e 115 653
e 115 662
e 115 691
e 115 701
e 115 711
e 115 721
e 115 723
e 115 749
e 115 753
e 115 769
e 115 772
e 115 817
e 115 820
e 115 842
e 115 845
e 115 868
e 115 875
e 115 879
e 115 918
e 115 973
e 115 976
e 115 999
e 116 276
e 116 296
e 116 317
e 116 342
e 116 344
e 116 385
e 116 391
e 116 395
e 116 446
e 116 490
e 116 492
e 116 513
e 116 560
e 116 565
e 116 591
e 116 603
e 116 616
e 116 621
e 116 623
e 116 647
e 116 650
e 116 651
e 116 656
e 116 669
e 116 674
e 116 675
e 116 688
e 116 705
e 116 707
e 116 730
e 116 733
e 116 757
e 116 799
e 116 813
e 116 848
e 116 866
e 116 876
e 116 890
e 116 918
e 116 920
e 116 950
e 116 951
e 116 982
e 116 990
e 117 257
e 117 273
e 117 290
e 117 294
e 117 297
e 117 310
e 117 320
e 117 350
e 117 354
e 117 356
e 117 383
e 117 390
e 117 395
e 117 417
e 117 459
e 117 468
e 117 479
e 117 484
e 117 539
e 117 578
e 117 588
e 117 624
e 117 675
e 117 692
e 117 732
e 117 744
e 117 762
e 117 783
e 117 820
e 117 825
e 117 826
e 117 848
e 117 890
e 117 938
e 117 940
e 117 943
e 117 949
e 117 958
e 117 971
e 117 1000
e 118 278
e 118 279
e 118 282
e 118 294
e 118 345
e 118 379
e 118 385
e 118 397
e 118 403
e 118 436
e 118 536
e 118 541
e 118 565
e 118 570
e 118 571
e 118 603
e 118 638
e 118 661
e 118 689
e 118 717
e 118 728
e 118 730
e 118 750
e 118 754
e 118 770
e 118 774
e 118 783
e 118 789
e 118 798
e 118 799
e 118 819
e 118 831
e 118 869
e 118 885
e 118 915
e 118 919
e 118 942
e 118 948
e 118 951
e 118 986
e 119 316
e 119 323
e 119 335
e 119 341
e 119 350
e 119 354
e 119 373
e 119 378
e 119 381
e 119 406
e 119 422
e 119 436
e 119 452
e 119 511
e 119 557
e 119 596
e 119 608
e 119 614
e 119 713
e 119 718
e 119 727
e 119 730
e 119 737
e 119 796
e 119 797
e 119 822
e 119 839
e 119 847
e 119 852
e 119 885
e 119 950
e 119 958
e 119 965
e 119 994
e 119 995
e 119 998
e 120 282
e 120 305
e 120 316
e 120 352
e 120 378
e 120 396
e 120 408
e 120 409
e 120 426
e 120 436
e 120 440
e 120 459
e 120 499
e 120 558
e 120 561
e 120 577
e 120 581
e 120 588
e 120 597
e 120 611
e 120 630
e 120 654
e 120 684
e 120 719
e 120 739
e 120 786
e 120 800
e 120 802
e 120 885
e 120 890
e 120 922
e 120 942
e 120 959
e 120 975
e 120 976
e 120 980
e 120 985
e 120 1000
e 121 253
e 121 259
e 121 274
e 121 293
e 121 320
e 121 336
e 121 396
e 121 431
e 121 455
e 121 486
e 121 520
e 121 550
e 121 554
e 121 576
e 121 621
e 121 664
e 121 671
e 121 687
e 121 724
e 121 787
e 121 807
e 121 809
e 121 825
e 121 828
e 121 833
e 121 837
e 121 854
e 121 857
e 121 860
e 121 887
e 121 923
e 121 941
e 121 942
e 121 946
e 121 948
e 121 965
e 121 968
e 122 289
e 122 309
e 122 323
e 122 335
e 122 385
e 122 399
e 122 426
e 122 433
e 122 436
e 122 483
e 122 498
e 122 517
e 122 539
e 122 541
e 122 551
e 122 589
e 122 596
e 122 601
e 122 615
e 122 710
e 122 754
e 122 768
e 122 808
e 122 814
e 122 820
e 122 885
e 122 899
e 122 902
e 122 920
e 122 937
e 122 989
e 122 995
e 123 254
e 123 258
e 123 261
e 123 277
e 123 289
e 123 299
e 123 337
e 123 386
e 123 397
e 123 398
e 123 434
e 123 465
e 123 509
e 123 532
e 123 554
e 123 558
e 123 561
e 123 593
e 123 605
e 123 651
e 123 665
e 123 703
e 123 756
e 123 761
e 123 767
e 123 796
e 123 845
e 123 848
e 123 879
e 123 909
e 123 918
e 123 930
e 123 938
e 123 939
e 123 950
e 123 961
e 123 969
e 123 970
e 123 997
e 124 262
e 124 301
e 124 302
e 124 327
e 124 399
e 124 402
e 124 407
e 124 414
e 124 421
e 124 431
e 124 453
e 124 456
e 124 508
e 124 584
e 124 619
e 124 620
e 124 621
e 124 627
e 124 659
e 124 678
e 124 679
e 124 690
e 124 702
e 124 712
e 124 726
e 124 776
e 124 862
e 124 884
e 124 894
e 124 936
e 124 951
e 124 976
e 124 984
e 125 277
e 125 296
e 125 341
e 125 381
e 125 506
e 125 515
e 125 529
e 125 550
e 125 554
e 125 575
e 125 579
e 125 657
e 125 721
e 125 757
e 125 758
e 125 772
e 125 787
e 125 793
e 125 811
e 125 814
e 125 818
e 125 829
e 125 994
e 126 257
e 126 291
e 126 305
e 126 330
e 126 334
e 126 345
e 126 387
e 126 393
e 126 398
e 126 415
e 126 419
e 126 435
e 126 464
e 126 466
e 126 477
e 126 501
e 126 513
e 126 529
e 126 531
e 126 552
e 126 578
e 126 586
e 126 595
e 126 639
e 126 685
e 126 710
e 126 806
e 126 816
e 126 836
e 126 842
e 126 863
e 126 878
e 126 880
e 126 915
e 127 252
e 127 274
e 127 281
e 127 283
e 127 292
e 127 303
e 127 317
e 127 337
e 127 400
e 127 477
e 127 504
e 127 517
e 127 547
e 127 556
e 127 568
e 127 604
e 127 624
e 127 627
e 127 651
e 127 657
e 127 664
e 127 702
e 127 716
e 127 744
e 127 755
e 127 779
e 127 796
e 127 806
e 127 859
e 127 892
e 127 942
e 128 260
e 128 264
e 128 335
e 128 336
e 128 346
e 128 356
e 128 396
e 128 403
e 128 406
e 128 416
e 128 439
e 128 446
e 128 487
e 128 494
e 128 496
e 128 512
e 128 514
e 128 516
e 128 517
e 128 573
e 128 612
e 128 617
e 128 674
e 128 717
e 128 744
e 128 781
e 128 790
e 128 942
e 128 973
e 128 977
e 128 992
e 129 275
e 129 301
e 129 358
e 129 376
e 129 386
e 129 413
e 129 491
e 129 492
e 129 493
e 129 509
e 129 511
e 129 519
e 129 522
e 129 537
e 129 549
e 129 577
e 129 604
e 129 675
e 129 694
e 129 697
e 129 709
e 129 712
e 129 720
e 129 743
e 129 744
e 129 759
e 129 761
e 129 770
e 129 772
e 129 797
e 129 801
e 129 825
e 129 832
e 129 834
e 129 848
e 129 880
e 129 950
e 129 965
e 129 979
e 130 259
e 130 282
e 130 284
e 130 287
e 130 340
e 130 373
e 130 386
e 130 390
e 130 398
e 130 430
e 130 443
e 130 461
e 130 470
e 130 499
e 130 521
e 130 522
e 130 532
e 130 570
e 130 606
e 130 614
e 130 618
e 130 623
e 130 625
e 130 657
e 130 668
e 130 706
e 130 728
e 130 769
e 130 782
e 130 795
e 130 802
e 130 815
e 130 824
e 130 836
e 130 840
e 130 842
e 130 845
e 130 871
e 130 890
e 130 934
e 130 941
e 130 998
e 130 999
e 131 264
e 131 283
e 131 346
e 131 348
e 131 352
e 131 356
e 131 384
e 131 387
e 131 410
e 131 425
e 131 433
e 131 458
e 131 465
e 131 472
e 131 496
e 131 599
e 131 626
e 131 670
e 131 671
e 131 679
e 131 705
e 131 715
e 131 739
e 131 744
e 131 746
e 131 781
e 131 788
e 131 790
e 131 807
e 131 837
e 131 868
e 131 879
e 131 898
e 131 904
e 131 913
e 131 978
e 131 982
e 131 992
e 131 994
e 131 996
e 132 282
e 132 300
e 132 324
e 132 337
e 132 354
e 132 363
e 132 371
e 132 399
e 132 400
e 132 425
e 132 460
e 132 481
e 132 490
e 132 496
e 132 502
e 132 560
e 132 564
e 132 567
e 132 594
e 132 607
e 132 636
e 132 640
e 132 654
e 132 665
e 132 747
e 132 752
e 132 760
e 132 770
e 132 771
e 132 808
e 132 816
e 132 820
e 132 838
e 132 839
e 132 844
e 132 853
e 132 860
e 132 862
e 132 876
e 132 903
e 132 909
e 132 928
e 132 936
e 132 954
e 132 968
e 133 254
e 133 267
e 133 291
e 133 292
e 133 300
e 133 303
e 133 313
e 133 325
e 133 336
e 133 352
e 133 371
e 133 372
e 133 384
e 133 438
e 133 525
e 133 537
e 133 542
e 133 553
e 133 556
e 133 568
e 133 586
e 133 591
e 133 639
e 133 641
e 133 660
e 133 677
e 133 686
e 133 698
e 133 710
e 133 744
e 133 767
e 133 782
e 133 822
e 133 832
e 133 840
e 133 858
e 133 874
e 133 877
e 133 878
e 133 926
e 133 927
e 133 970
e 134 284
e 134 313
e 134 321
e 134 322
e 134 325
e 134 341
e 134 397
e 134 436
e 134 446
e 134 465
e 134 507
e 134 514
e 134 587
e 134 596
e 134 639
e 134 656
e 134 718
e 134 746
e 134 770
e 134 810
e 134 814
e 134 852
e 134 873
e 134 888
e 134 932
e 134 935
e 134 942
e 134 982
e 135 283
e 135 291
e 135 298
e 135 315
e 135 354
e 135 356
e 135 404
e 135 421
e 135 431
e 135 440
e 135 492
e 135 497
e 135 526
e 135 528
e 135 548
e 135 549
e 135 573
e 135 574
e 135 583
e 135 594
e 135 596
e 135 624
e 135 673
e 135 694
e 135 696
e 135 706
e 135 725
e 135 745
e 135 762
e 135 767
e 135 768
e 135 779
e 135 816
e 135 819
e 135 907
e 135 917
e 135 922
e 135 986
e 136 266
e 136 307
e 136 308
e 136 321
e 136 333
e 136 350
e 136 353
e 136 396
e 136 410
e 136 412
e 136 425
e 136 464
e 136 497
e 136 503
e 136 521
e 136 533
e 136 559
e 136 566
e 136 573
e 136 586
e 136 607
e 136 610
e 136 649
e 136 659
e 136 692
e 136 724
e 136 729
e 136 732
e 136 734
e 136 738
e 136 744
e 136 750
e 136 785
e 136 804
e 136 816
e 136 852
e 136 857
e 136 955
e 137 308
e 137 327
e 137 350
e 137 369
e 137 395
e 137 402
e 137 411
e 137 421
e 137 459
e 137 518
e 137 545
e 137 562
e 137 611
e 137 654
e 137 662
e 137 691
e 137 701
e 137 760
e 137 762
e 137 763
e 137 775
e 137 810
e 137 835
e 137 899
e 137 989
e 137 1000
e 138 285
e 138 292
e 138 301
e 138 352
e 138 359
e 138 367
e 138 379
e 138 401
e 138 436
e 138 439
e 138 446
e 138 450
e 138 466
e 138 470
e 138 520
e 138 526
e 138 544
e 138 563
e 138 593
e 138 598
e 138 624
e 138 643
e 138 674
e 138 770
e 138 777
e 138 782
e 138 813
e 138 820
e 138 854
e 138 855
e 138 860
e 138 884
e 138 890
e 138 893
e 138 929
e 138 932
e 138 942
e 138 958
e 138 965
e 138 975
e 138 981
e 138 988
e 139 304
e 139 336
e 139 350
e 139 355
e 139 378
e 139 388
e 139 390
e 139 409
e 139 435
e 139 466
e 139 481
e 139 482
e 139 542
e 139 563
e 139 588
e 139 636
e 139 651
e 139 666
e 139 694
e 139 699
e 139 713
e 139 746
e 139 755
e 139 758
e 139 778
e 139 847
e 139 874
e 139 890
e 139 901
e 139 911
e 139 914
e 139 941
e 139 945
e 139 968
e 139 974
e 139 983
e 140 287
e 140 298
e 140 312
e 140 329
e 140 350
e 140 380
e 140 432
e 140 457
e 140 520
e 140 533
e 140 535
e 140 588
e 140 600
e 140 609
e 140 634
e 140 638
e 140 675
e 140 677
e 140 682
e 140 689
e 140 732
e 140 764
e 140 787
e 140 836
e 140 844
e 140 852
e 140 860
e 140 863
e 140 895
e 140 897
e 140 906
e 140 963
e 140 990
e 140 995
e 141 285
e 141 309
e 141 332
e 141 343
e 141 386
e 141 440
e 141 475
e 141 486
e 141 488
e 141 505
e 141 559
e 141 587
e 141 594
e 141 596
e 141 670
e 141 707
e 141 765
e 141 806
e 141 811
e 141 873
e 141 958
e 141 961
e 141 994
e 142 291
e 142 319
e 142 340
e 142 353
e 142 428
e 142 430
e 142 441
e 142 451
e 142 494
e 142 521
e 142 560
e 142 578
e 142 593
e 142 594
e 142 672
e 142 680
e 142 686
e 142 701
e 142 709
e 142 726
e 142 739
e 142 744
e 142 751
e 142 771
e 142 790
e 142 791
e 142 811
e 142 817
e 142 837
e 142 867
e 142 870
e 142 879
e 142 924
e 143 251
e 143 265
e 143 296
e 143 302
e 143 310
e 143 316
e 143 319
e 143 343
e 143 347
e 143 349
e 143 363
e 143 373
e 143 385
e 143 404
e 143 417
e 143 420
e 143 444
e 143 456
e 143 486
e 143 541
e 143 544
e 143 552
e 143 562
e 143 614
e 143 642
e 143 659
e 143 664
e 143 695
e 143 734
e 143 768
e 143 770
e 143 819
e 143 825
e 143 865
e 143 878
e 143 879
e 143 892
e 143 912
e 143 927
e 143 950
e 144 260
e 144 289
e 144 302
e 144 315
e 144 332
e 144 338
e 144 370
e 144 387
e 144 423
e 144 433
e 144 441
e 144 447
e 144 528
e 144 550
e 144 559
e 144 570
e 144 585
e 144 606
e 144 649
e 144 698
e 144 699
e 144 713
e 144 716
e 144 733
e 144 734
e 144 739
e 144 768
e 144 779
e 144 843
e 144 877
e 144 884
e 144 889
e 144 908
e 144 916
e 144 951
e 144 967
e 145 280
e 145 332
e 145 337
e 145 345
e 145 426
e 145 434
e 145 452
e 145 479
e 145 500
e 145 509
e 145 512
e 145 518
e 145 541
e 145 552
e 145 570
e 145 583
e 145 720
e 145 777
e 145 821
e 145 837
e 145 855
e 145 860
e 145 879
e 145 881
e 145 884
e 145 891
e 145 901
e 145 913
e 145 918
e 145 945
e 146 272
e 146 291
e 146 333
e 146 340
e 146 392
e 146 395
e 146 398
e 146 420
e 146 438
e 146 441
e 146 453
e 146 468
e 146 472
e 146 516
e 146 568
e 146 587
e 146 614
e 146 617
e 146 625
e 146 627
e 146 631
e 146 632
e 146 639
e 146 682
e 146 685
e 146 715
e 146 736
e 146 750
e 146 771
e 146 776
e 146 836
e 146 848
e 146 861
e 146 912
e 146 974
e 146 990
e 147 253
e 147 276
e 147 285
e 147 286
e 147 289
e 147 298
e 147 328
e 147 348
e 147 357
e 147 368
e 147 370
e 147 375
e 147 377
e 147 385
e 147 395
e 147 396
e 147 399
e 147 400
e 147 401
e 147 418
e 147 468
e 147 473
e 147 482
e 147 514
e 147 540
e 147 551
e 147 573
e 147 594
e 147 615
e 147 627
e 147 644
e 147 649
e 147 686
e 147 700
e 147 713
e 147 714
e 147 746
e 147 752
e 147 758
e 147 794
e 147 818
e 147 822
e 147 850
e 147 892
e 147 899
e 147 914
e 147 950
e 147 958
e 147 999
e 148 269
e 148 329
e 148 331
e 148 358
e 148 384
e 148 410
e 148 433
e 148 434
e 148 458
e 148 476
e 148 483
e 148 496
e 148 505
e 148 509
e 148 541
e 148 547
e 148 554
e 148 560
e 148 561
e 148 608
e 148 648
e 148 651
e 148 765
e 148 829
e 148 836
e 148 858
e 148 886
e 148 913
e 148 930
e 148 937
e 148 965
e 148 971
e 148 978
e 148 983
e 148 985
e 149 251
e 149 289
e 149 307
e 149 317
e 149 349
e 149 362
e 149 378
e 149 383
e 149 396
e 149 425
e 149 471
e 149 497
e 149 516
e 149 517
e 149 521
e 149 537
e 149 541
e 149 590
e 149 608
e 149 626
e 149 635
e 149 638
e 149 688
e 149 735
e 149 746
e 149 767
e 149 776
e 149 799
e 149 889
e 149 901
e 149 923
e 149 941
e 149 949
e 149 990
e 150 284
e 150 300
e 150 309
e 150 321
e 150 332
e 150 357
e 150 407
e 150 421
e 150 452
e 150 507
e 150 514
e 150 529
e 150 565
e 150 574
e 150 576
e 150 599
e 150 628
e 150 629
e 150 671
e 150 684
e 150 743
e 150 749
e 150 750
e 150 823
e 150 827
e 150 833
e 150 857
e 150 934
e 150 962
e 151 262
e 151 264
e 151 266
e 151 282
e 151 283
e 151 294
e 151 350
e 151 359
e 151 367
e 151 375
e 151 409
e 151 434
e 151 443
e 151 458
e 151 468
e 151 478
e 151 482
e 151 487
e 151 497
e 151 503
e 151 560
e 151 611
e 151 636
e 151 645
e 151 652
e 151 656
e 151 659
e 151 709
e 151 710
e 151 740
e 151 751
e 151 787
e 151 792
e 151 802
e 151 840
e 151 852
e 151 856
e 151 860
e 151 861
e 151 877
e 151 992
e 151 997
e 152 260
e 152 273
e 152 304
e 152 315
e 152 333
e 152 346
e 152 355
e 152 361
e 152 410
e 152 420
e 152 452
e 152 462
e 152 497
e 152 521
e 152 531
e 152 534
e 152 542
e 152 543
e 152 586
e 152 634
e 152 647
e 152 652
e 152 680
e 152 687
e 152 701
e 152 724
e 152 742
e 152 751
e 152 813
e 152 818
e 152 822
e 152 828
e 152 871
e 152 874
e 152 884
e 152 907
e 152 926
e 152 951
e 152 991
e 152 1000
e 153 251
e 153 263
e 153 278
e 153 317
e 153 436
e 153 467
e 153 484
e 153 496
e 153 511
e 153 527
e 153 543
e 153 560
e 153 575
e 153 587
e 153 620
e 153 621
e 153 671
e 153 687
e 153 708
e 153 713
e 153 722
e 153 789
e 153 793
e 153 824
e 153 829
e 153 849
e 153 879
e 153 885
e 153 947
e 153 959
e 153 961
e 153 962
e 154 266
e 154 272
e 154 288
e 154 296
e 154 348
e 154 359
e 154 375
e 154 388
e 154 400
e 154 423
e 154 458
e 154 477
e 154 527
e 154 552
e 154 555
e 154 557
e 154 577
e 154 579
e 154 600
e 154 602
e 154 612
e 154 616
e 154 628
e 154 659
e 154 667
e 154 677
e 154 688
e 154 701
e 154 768
e 154 772
e 154 777
e 154 815
e 154 819
e 154 824
e 154 837
e 154 860
e 154 863
e 154 899
e 154 911
e 154 929
e 154 940
e 154 954
e 154 957
e 154 971
e 155 262
e 155 299
e 155 303
e 155 309
e 155 322
e 155 345
e 155 348
e 155 359
e 155 402
e 155 420
e 155 432
e 155 437
e 155 451
e 155 462
e 155 581
e 155 593
e 155 635
e 155 637
e 155 646
e 155 674
e 155 703
e 155 711
e 155 743
e 155 763
e 155 769
e 155 776
e 155 782
e 155 804
e 155 836
e 155 838
e 155 849
e 155 850
e 155 879
e 155 885
e 155 898
e 155 911
e 155 913
e 155 914
e 155 925
e 155 926
e 155 937
e 155 964
e 155 970
e 156 257
e 156 263
e 156 266
e 156 277
e 156 302
e 156 303
e 156 328
e 156 331
e 156 334
e 156 338
e 156 347
e 156 363
e 156 366
e 156 382
e 156 426
e 156 441
e 156 534
e 156 541
e 156 560
e 156 570
e 156 604
e 156 618
e 156 660
e 156 717
e 156 725
e 156 769
e 156 805
e 156 829
e 156 842
e 156 845
e 156 864
e 156 870
e 156 878
e 156 881
e 156 883
e 156 891
e 156 904
e 156 937
e 156 962
e 157 317
e 157 330
e 157 342
e 157 377
e 157 395
e 157 407
e 157 412
e 157 427
e 157 436
e 157 453
e 157 469
e 157 527
e 157 536
e 157 563
e 157 565
e 157 578
e 157 586
e 157 610
e 157 628
e 157 639
e 157 641
e 157 667
e 157 703
e 157 709
e 157 717
e 157 764
e 157 812
e 157 824
e 157 871
e 157 889
e 157 910
e 157 911
e 157 917
e 157 920
e 157 940
e 157 941
e 157 948
e 157 963
e 157 990
e 157 992
e 158 256
e 158 268
e 158 283
e 158 289
e 158 293
e 158 323
e 158 363
e 158 366
e 158 397
e 158 403
e 158 423
e 158 470
e 158 516
e 158 560
e 158 578
e 158 583
e 158 586
e 158 587
e 158 653
e 158 677
e 158 692
e 158 729
e 158 758
e 158 778
e 158 783
e 158 793
e 158 803
e 158 809
e 158 820
e 158 828
e 158 867
e 158 870
e 158 903
e 158 909
e 158 916
e 158 935
e 158 953
e 158 962
e 158 973
e 158 995
e 159 323
e 159 338
e 159 348
e 159 366
e 159 372
e 159 380
e 159 381
e 159 401
e 159 417
e 159 505
e 159 519
e 159 552
e 159 582
e 159 608
e 159 623
e 159 630
e 159 637
e 159 696
e 159 706
e 159 757
e 159 811
e 159 816
e 159 854
e 159 905
e 159 910
e 159 941
e 159 942
e 159 948
e 159 998
e 160 325
e 160 345
e 160 354
e 160 366
e 160 383
e 160 400
e 160 416
e 160 445
e 160 469
e 160 477
e 160 505
e 160 515
e 160 518
e 160 525
e 160 546
e 160 572
e 160 610
e 160 681
e 160 699
e 160 726
e 160 775
e 160 813
e 160 821
e 160 847
e 160 848
e 160 866
e 160 877
e 160 926
e 160 940
e 160 972
e 160 976
e 160 996
e 161 266
e 161 272
e 161 280
e 161 333
e 161 337
e 161 340
e 161 356
e 161 363
e 161 377
e 161 398
e 161 421
e 161 488
e 161 509
e 161 548
e 161 552
e 161 556
e 161 569
e 161 606
e 161 648
e 161 726
e 161 765
e 161 770
e 161 787
e 161 789
e 161 793
e 161 796
e 161 805
e 161 811
e 161 853
e 161 874
e 161 900
e 161 906
e 161 907
e 161 959
e 161 983
e 161 999
e 162 269
e 162 300
e 162 319
e 162 397
e 162 420
e 162 446
e 162 456
e 162 549
e 162 571
e 162 585
e 162 588
e 162 646
e 162 675
e 162 678
e 162 683
e 162 699
e 162 701
e 162 707
e 162 731
e 162 735
e 162 749
e 162 750
e 162 757
e 162 765
e 162 778
e 162 795
e 162 814
e 162 827
e 162 841
e 162 866
e 162 887
e 162 889
e 162 896
e 162 897
e 162 909
e 162 915
e 162 916
e 162 927
e 162 929
e 162 948
e 162 956
e 162 958
e 162 973
e 162 983
e 162 987
e 163 272
e 163 289
e 163 301
e 163 306
e 163 339
e 163 359
e 163 361
e 163 366
e 163 385
e 163 387
e 163 428
e 163 443
e 163 456
e 163 512
e 163 527
e 163 529
e 163 545
e 163 560
e 163 564
e 163 565
e 163 581
e 163 609
e 163 621
e 163 630
e 163 631
e 163 638
e 163 646
e 163 662
e 163 689
e 163 705
e 163 713
e 163 738
e 163 774
e 163 779
e 163 807
e 163 838
e 163 844
e 163 845
e 163 868
e 163 881
e 163 883
e 163 902
e 163 904
e 163 907
e 163 916
e 163 925
e 163 981
e 163 988
e 164 277
e 164 333
e 164 356
e 164 380
e 164 412
e 164 420
e 164 422
e 164 424
e 164 481
e 164 486
e 164 556
e 164 567
e 164 581
e 164 603
e 164 637
e 164 655
e 164 661
e 164 739
e 164 781
e 164 808
e 164 812
e 164 857
e 164 858
e 164 873
e 164 901
e 164 910
e 164 924
e 164 927
e 164 930
e 164 946
e 164 957
e 164 977
e 165 354
e 165 356
e 165 364
e 165 392
e 165 401
e 165 407
e 165 457
e 165 487
e 165 499
e 165 514
e 165 564
e 165 617
e 165 621
e 165 630
e 165 641
e 165 654
e 165 668
e 165 685
e 165 701
e 165 727
e 165 735
e 165 738
e 165 746
e 165 763
e 165 774
e 165 783
e 165 786
e 165 797
e 165 801
e 165 818
e 165 861
e 165 887
e 165 890
e 165 892
e 165 906
e 165 914
e 165 921
e 165 935
e 165 937
e 165 958
e 165 992
e 166 279
e 166 347
e 166 349
e 166 380
e 166 388
e 166 400
e 166 405
e 166 425
e 166 427
e 166 462
e 166 480
e 166 543
e 166 546
e 166 559
e 166 568
e 166 589
e 166 590
e 166 599
e 166 602
e 166 612
e 166 621
e 166 635
e 166 651
e 166 746
e 166 754
e 166 796
e 166 840
e 166 887
e 166 892
e 166 897
e 166 910
e 166 914
e 166 919
e 166 991
e 167 263
e 167 295
e 167 311
e 167 338
e 167 355
e 167 360
e 167 365
e 167 369
e 167 378
e 167 384
e 167 405
e 167 442
e 167 451
e 167 456
e 167 464
e 167 518
e 167 535
e 167 585
e 167 601
e 167 602
e 167 651
e 167 702
e 167 726
e 167 733
e 167 743
e 167 781
e 167 836
e 167 883
e 167 886
e 167 889
e 167 925
e 167 979
e 167 996
e 168 259
e 168 263
e 168 275
e 168 296
e 168 328
e 168 356
e 168 357
e 168 397
e 168 413
e 168 417
e 168 421
e 168 426
e 168 474
e 168 492
e 168 511
e 168 531
e 168 594
e 168 614
e 168 641
e 168 656
e 168 665
e 168 713
e 168 745
e 168 760
e 168 787
e 168 818
e 168 821
e 168 875
e 168 935
e 168 949
e 168 966
e 169 273
e 169 285
e 169 306
e 169 352
e 169 353
e 169 378
e 169 394
e 169 433
e 169 437
e 169 441
e 169 452
e 169 455
e 169 478
e 169 515
e 169 562
e 169 564
e 169 565
e 169 609
e 169 630
e 169 647
e 169 650
e 169 678
e 169 696
e 169 705
e 169 774
e 169 806
e 169 839
e 169 874
e 169 924
e 169 935
e 169 950
e 169 986
e 169 990
e 169 996
e 170 360
e 170 410
e 170 411
e 170 422
e 170 435
e 170 484
e 170 519
e 170 526
e 170 534
e 170 539
e 170 540
e 170 541
e 170 545
e 170 566
e 170 637
e 170 654
e 170 661
e 170 662
e 170 666
e 170 676
e 170 694
e 170 697
e 170 712
e 170 735
e 170 817
e 170 823
e 170 874
e 170 897
e 170 910
e 170 938
e 170 951
e 170 966
e 171 281
e 171 289
e 171 298
e 171 299
e 171 343
e 171 344
e 171 402
e 171 413
e 171 452
e 171 507
e 171 509
e 171 519
e 171 554
e 171 562
e 171 569
e 171 582
e 171 590
e 171 608
e 171 630
e 171 656
e 171 674
e 171 677
e 171 734
e 171 738
e 171 755
e 171 768
e 171 815
e 171 816
e 171 819
e 171 822
e 171 825
e 171 848
e 171 862
e 171 871
e 171 890
e 171 922
e 171 934
e 171 958
e 171 963
e 171 988
e 172 252
e 172 271
e 172 284
e 172 286
e 172 326
e 172 343
e 172 367
e 172 368
e 172 373
e 172 387
e 172 395
e 172 396
e 172 404
e 172 415
e 172 423
e 172 425
e 172 450
e 172 569
e 172 574
e 172 598
e 172 617
e 172 644
e 172 667
e 172 674
e 172 680
e 172 684
e 172 685
e 172 694
e 172 706
e 172 737
e 172 752
e 172 772
e 172 787
e 172 796
e 172 808
e 172 821
e 172 829
e 172 857
e 172 893
e 172 894
e 172 902
e 172 912
e 172 932
e 172 994
e 172 1000
e 173 251
e 173 263
e 173 265
e 173 300
e 173 358
e 173 360
e 173 414
e 173 425
e 173 432
e 173 442
e 173 467
e 173 484
e 173 487
e 173 507
e 173 519
e 173 560
e 173 563
e 173 566
e 173 595
e 173 625
e 173 689
e 173 697
e 173 710
e 173 713
e 173 720
e 173 724
e 173 737
e 173 752
e 173 764
e 173 778
e 173 786
e 173 795
e 173 822
e 173 830
e 173 836
e 173 840
e 173 855
e 173 861
e 173 867
e 173 868
e 173 884
e 173 887
e 173 889
e 173 892
e 173 910
e 173 931
e 173 953
e 173 961
e 174 252
e 174 330
e 174 335
e 174 338
e 174 339
e 174 356
e 174 407
e 174 414
e 174 421
e 174 436
e 174 441
e 174 478
e 174 511
e 174 546
e 174 554
e 174 562
e 174 570
e 174 582
e 174 588
e 174 633
e 174 685
e 174 717
e 174 795
e 174 815
e 174 863
e 174 873
e 174 883
e 174 896
e 174 902
e 174 907
e 174 913
e 174 918
e 174 958
e 174 981
e 175 255
e 175 261
e 175 310
e 175 318
e 175 319
e 175 344
e 175 448
e 175 456
e 175 480
e 175 496
e 175 517
e 175 523
e 175 526
e 175 532
e 175 536
e 175 537
e 175 552
e 175 555
e 175 579
e 175 608
e 175 624
e 175 630
e 175 642
e 175 652
e 175 677
e 175 720
e 175 727
e 175 735
e 175 765
e 175 766
e 175 774
e 175 816
e 175 827
e 175 838
e 175 845
e 175 855
e 175 856
e 175 882
e 175 908
e 175 921
e 175 922
e 175 926
e 175 930
e 175 932
e 175 945
e 175 987
e 175 991
e 175 999
e 175 1000
e 176 335
e 176 337
e 176 345
e 176 353
e 176 422
e 176 423
e 176 445
e 176 460
e 176 470
e 176 534
e 176 559
e 176 565
e 176 594
e 176 600
e 176 603
e 176 678
e 176 686
e 176 693
e 176 708
e 176 765
e 176 788
e 176 790
e 176 820
e 176 822
e 176 828
e 176 858
e 176 880
e 176 912
e 176 931
e 176 932
e 176 935
e 176 960
e 176 976
e 176 980
e 177 314
e 177 375
e 177 384
e 177 390
e 177 393
e 177 438
e 177 459
e 177 487
e 177 497
e 177 521
e 177 567
e 177 602
e 177 605
e 177 607
e 177 642
e 177 643
e 177 669
e 177 670
e 177 707
e 177 723
e 177 789
e 177 804
e 177 834
e 177 867
e 177 872
e 177 880
e 177 895
e 177 908
e 177 917
e 177 929
e 177 953
e 177 959
e 177 967
e 177 987
e 177 993
e 178 286
e 178 316
e 178 360
e 178 413
e 178 421
e 178 460
e 178 485
e 178 520
e 178 523
e 178 528
e 178 556
e 178 594
e 178 631
e 178 659
e 178 703
e 178 735
e 178 737
e 178 794
e 178 800
e 178 836
e 178 852
e 178 894
e 178 946
e 178 947
e 178 978
e 178 991
e 179 324
e 179 330
e 179 337
e 179 341
e 179 343
e 179 371
e 179 397
e 179 400
e 179 462
e 179 496
e 179 501
e 179 511
e 179 519
e 179 540
e 179 541
e 179 602
e 179 603
e 179 666
e 179 692
e 179 695
e 179 708
e 179 713
e 179 740
e 179 759
e 179 783
e 179 795
e 179 798
e 179 809
e 179 878
e 179 898
e 179 941
e 179 955
e 179 975
e 179 987
e 179 996
e 179 997
e 180 252
e 180 278
e 180 299
e 180 315
e 180 316
e 180 331
e 180 348
e 180 395
e 180 504
e 180 505
e 180 509
e 180 514
e 180 519
e 180 532
e 180 548
e 180 550
e 180 571
e 180 618
e 180 629
e 180 631
e 180 634
e 180 639
e 180 651
e 180 704
e 180 738
e 180 784
e 180 802
e 180 851
e 180 868
e 180 885
e 180 887
e 180 910
e 180 918
e 180 989
e 181 257
e 181 264
e 181 289
e 181 298
e 181 299
e 181 313
e 181 325
e 181 337
e 181 358
e 181 412
e 181 445
e 181 456
e 181 476
e 181 485
e 181 488
e 181 504
e 181 512
e 181 535
e 181 554
e 181 570
e 181 595
e 181 623
e 181 634
e 181 645
e 181 647
e 181 665
e 181 721
e 181 732
e 181 814
e 181 872
e 181 883
e 181 909
e 181 920
e 181 921
e 181 939
e 181 951
e 181 965
e 182 301
e 182 317
e 182 370
e 182 387
e 182 391
e 182 428
e 182 443
e 182 453
e 182 488
e 182 492
e 182 506
e 182 512
e 182 519
e 182 546
e 182 548
e 182 604
e 182 669
e 182 740
e 182 761
e 182 803
e 182 835
e 182 866
e 182 880
e 182 896
e 182 900
e 182 910
e 182 913
e 182 928
e 182 937
e 182 979
e 183 260
e 183 265
e 183 268
e 183 300
e 183 336
e 183 344
e 183 349
e 183 351
e 183 380
e 183 386
e 183 394
e 183 411
e 183 444
e 183 453
e 183 456
e 183 479
e 183 495
e 183 499
e 183 513
e 183 530
e 183 531
e 183 535
e 183 577
e 183 581
e 183 590
e 183 596
e 183 605
e 183 611
e 183 614
e 183 625
e 183 685
e 183 699
e 183 710
e 183 737
e 183 746
e 183 765
e 183 781
e 183 792
e 183 847
e 183 859
e 183 891
e 183 895
e 183 898
e 183 902
e 183 904
e 183 909
e 183 929
e 183 932
e 184 274
e 184 275
e 184 277
e 184 286
e 184 307
e 184 340
e 184 342
e 184 361
e 184 403
e 184 409
e 184 418
e 184 421
e 184 456
e 184 495
e 184 514
e 184 560
e 184 609
e 184 637
e 184 697
e 184 709
e 184 768
e 184 779
e 184 784
e 184 793
e 184 831
e 184 895
e 184 907
e 184 908
e 184 921
e 184 959
e 184 971
e 184 991
e 184 994
e 185 297
e 185 299
e 185 330
e 185 353
e 185 380
e 185 387
e 185 390
e 185 425
e 185 428
e 185 457
e 185 514
e 185 525
e 185 566
e 185 584
e 185 585
e 185 586
e 185 608
e 185 640
e 185 648
e 185 692
e 185 695
e 185 721
e 185 741
e 185 743
e 185 746
e 185 755
e 185 774
e 185 791
e 185 801
e 185 819
e 185 838
e 185 847
e 185 881
e 185 893
e 185 955
e 185 963
e 185 986
e 185 990
e 186 276
e 186 277
e 186 298
e 186 304
e 186 314
e 186 315
e 186 388
e 186 402
e 186 403
e 186 405
e 186 419
e 186 433
e 186 450
e 186 476
e 186 497
e 186 512
e 186 535
e 186 542
e 186 584
e 186 592
e 186 617
e 186 629
e 186 697
e 186 731
e 186 738
e 186 749
e 186 752
e 186 802
e 186 804
e 186 849
e 186 861
e 186 907
e 186 912
e 186 948
e 187 284
e 187 315
e 187 361
e 187 379
e 187 404
e 187 422
e 187 431
e 187 433
e 187 455
e 187 480
e 187 484
e 187 496
e 187 506
e 187 521
e 187 540
e 187 568
e 187 576
e 187 579
e 187 607
e 187 617
e 187 635
e 187 691
e 187 726
e 187 762
e 187 791
e 187 832
e 187 853
e 187 862
e 187 872
e 187 882
e 187 892
e 187 899
e 187 933
e 187 972
e 187 984
e 188 266
e 188 272
e 188 277
e 188 289
e 188 327
e 188 331
e 188 347
e 188 366
e 188 368
e 188 396
e 188 425
e 188 438
e 188 461
e 188 489
e 188 494
e 188 504
e 188 505
e 188 529
e 188 530
e 188 539
e 188 593
e 188 610
e 188 619
e 188 647
e 188 683
e 188 687
e 188 694
e 188 696
e 188 788
e 188 795
e 188 798
e 188 799
e 188 813
e 188 821
e 188 822
e 188 828
e 188 853
e 188 874
e 188 902
e 188 933
e 188 943
e 188 948
e 188 962
e 189 263
e 189 274
e 189 287
e 189 317
e 189 323
e 189 347
e 189 370
e 189 410
e 189 413
e 189 446
e 189 452
e 189 454
e 189 498
e 189 508
e 189 519
e 189 520
e 189 555
e 189 560
e 189 575
e 189 587
e 189 594
e 189 599
e 189 642
e 189 644
e 189 684
e 189 685
e 189 725
e 189 728
e 189 738
e 189 746
e 189 760
e 189 785
e 189 805
e 189 812
e 189 825
e 189 842
e 189 844
e 189 861
e 189 891
e 189 894
e 189 896
e 189 900
e 189 934
e 189 935
e 189 946
e 189 950
e 189 967
e 190 275
e 190 309
e 190 321
e 190 324
e 190 332
e 190 344
e 190 349
e 190 358
e 190 424
e 190 430
e 190 437
e 190 473
e 190 594
e 190 608
e 190 615
e 190 621
e 190 637
e 190 638
e 190 643
e 190 650
e 190 679
e 190 757
e 190 772
e 190 820
e 190 850
e 190 862
e 190 869
e 190 870
e 190 877
e 190 878
e 190 966
e 190 997
e 190 999
e 191 256
e 191 265
e 191 285
e 191 294
e 191 298
e 191 322
e 191 325
e 191 334
e 191 355
e 191 381
e 191 389
e 191 426
e 191 429
e 191 432
e 191 459
e 191 505
e 191 530
e 191 540
e 191 556
e 191 558
e 191 568
e 191 591
e 191 614
e 191 615
e 191 617
e 191 621
e 191 632
e 191 645
e 191 650
e 191 736
e 191 749
e 191 826
e 191 840
e 191 860
e 191 869
e 191 870
e 191 898
e 191 919
e 191 930
e 191 944
e 191 984
e 192 299
e 192 322
e 192 337
e 192 355
e 192 386
e 192 413
e 192 420
e 192 424
e 192 465
e 192 489
e 192 501
e 192 509
e 192 512
e 192 527
e 192 528
e 192 533
e 192 535
e 192 573
e 192 578
e 192 634
e 192 696
e 192 755
e 192 769
e 192 789
e 192 799
e 192 826
e 192 831
e 192 832
e 192 872
e 192 874
e 192 892
e 192 895
e 192 910
e 192 918
e 192 970
e 192 980
e 192 996
e 192 999
e 193 272
e 193 278
e 193 332
e 193 342
e 193 378
e 193 406
e 193 438
e 193 440
e 193 449
e 193 452
e 193 458
e 193 466
e 193 468
e 193 512
e 193 522
e 193 536
e 193 580
e 193 605
e 193 616
e 193 670
e 193 700
e 193 719
e 193 727
e 193 732
e 193 741
e 193 805
e 193 806
e 193 811
e 193 844
e 193 872
e 193 890
e 193 910
e 193 936
e 193 956
e 194 253
e 194 284
e 194 294
e 194 300
e 194 325
e 194 329
e 194 372
e 194 405
e 194 456
e 194 464
e 194 466
e 194 491
e 194 516
e 194 530
e 194 543
e 194 554
e 194 590
e 194 601
e 194 605
e 194 615
e 194 634
e 194 636
e 194 671
e 194 684
e 194 713
e 194 775
e 194 795
e 194 808
e 194 823
e 194 830
e 194 883
e 194 974
e 195 262
e 195 301
e 195 303
e 195 307
e 195 330
e 195 349
e 195 352
e 195 371
e 195 395
e 195 448
e 195 455
e 195 468
e 195 473
e 195 486
e 195 495
e 195 509
e 195 514
e 195 519
e 195 538
e 195 554
e 195 558
e 195 568
e 195 592
e 195 599
e 195 640
e 195 655
e 195 676
e 195 678
e 195 696
e 195 697
e 195 724
e 195 729
e 195 746
e 195 798
e 195 809
e 195 817
e 195 822
e 195 828
e 195 851
e 195 875
e 195 884
e 195 898
e 195 911
e 195 934
e 195 936
e 195 943
e 195 986
e 196 318
e 196 368
e 196 399
e 196 422
e 196 435
e 196 447
e 196 454
e 196 456
e 196 505
e 196 512
e 196 524
e 196 527
e 196 585
e 196 592
e 196 607
e 196 618
e 196 636
e 196 637
e 196 638
e 196 717
e 196 737
e 196 765
e 196 772
e 196 790
e 196 836
e 196 851
e 196 856
e 196 863
e 196 873
e 196 882
e 196 896
e 196 972
e 196 981
e 197 252
e 197 258
e 197 284
e 197 315
e 197 325
e 197 334
e 197 355
e 197 364
e 197 485
e 197 488
e 197 492
e 197 494
e 197 515
e 197 524
e 197 528
e 197 529
e 197 531
e 197 534
e 197 545
e 197 555
e 197 602
e 197 611
e 197 629
e 197 640
e 197 668
e 197 672
e 197 701
e 197 734
e 197 776
e 197 790
e 197 802
e 197 842
e 197 848
e 197 891
e 197 931
e 197 932
e 197 955
e 197 968
e 197 987
e 198 252
e 198 260
e 198 267
e 198 338
e 198 343
e 198 368
e 198 377
e 198 384
e 198 407
e 198 410
e 198 432
e 198 449
e 198 464
e 198 490
e 198 511
e 198 520
e 198 539
e 198 556
e 198 626
e 198 661
e 198 674
e 198 714
e 198 720
e 198 797
e 198 814
e 198 816
e 198 845
e 198 887
e 198 907
e 198 946
e 198 964
e 198 977
e 199 252
e 199 260
e 199 279
e 199 280
e 199 295
e 199 332
e 199 362
e 199 374
e 199 393
e 199 407
e 199 412
e 199 433
e 199 472
e 199 498
e 199 511
e 199 515
e 199 526
e 199 532
e 199 552
e 199 569
e 199 574
e 199 610
e 199 622
e 199 657
e 199 670
e 199 675
e 199 676
e 199 697
e 199 699
e 199 732
e 199 736
e 199 741
e 199 767
e 199 856
e 199 860
e 199 865
e 199 917
e 199 934
e 199 960
e 199 963
e 200 253
e 200 256
e 200 307
e 200 311
e 200 332
e 200 397
e 200 411
e 200 418
e 200 433
e 200 435
e 200 494
e 200 503
e 200 504
e 200 519
e 200 608
e 200 631
e 200 649
e 200 666
e 200 667
e 200 671
e 200 688
e 200 718
e 200 731
e 200 733
e 200 736
e 200 739
e 200 767
e 200 802
e 200 820
e 200 837
e 200 882
e 200 920
e 200 922
e 200 984
e 200 986
e 201 267
e 201 283
e 201 299
e 201 358
e 201 388
e 201 403
e 201 440
e 201 446
e 201 451
e 201 472
e 201 519
e 201 521
e 201 554
e 201 573
e 201 577
e 201 580
e 201 583
e 201 598
e 201 601
e 201 639
e 201 649
e 201 679
e 201 687
e 201 688
e 201 689
e 201 711
e 201 718
e 201 755
e 201 756
e 201 769
e 201 778
e 201 819
e 201 823
e 201 852
e 201 900
e 201 920
e 201 921
e 201 978
e 201 983
e 201 990
e 202 259
e 202 261
e 202 263
e 202 299
e 202 318
e 202 336
e 202 344
e 202 360
e 202 372
e 202 405
e 202 449
e 202 465
e 202 469
e 202 475
e 202 497
e 202 512
e 202 566
e 202 571
e 202 597
e 202 614
e 202 618
e 202 627
e 202 628
e 202 652
e 202 669
e 202 687
e 202 721
e 202 726
e 202 792
e 202 821
e 202 822
e 202 827
e 202 876
e 202 887
e 202 893
e 202 896
e 202 917
e 202 919
e 202 935
e 202 941
e 202 951
e 202 958
e 202 987
e 203 256
e 203 298
e 203 325
e 203 326
e 203 327
e 203 333
e 203 367
e 203 382
e 203 395
e 203 406
e 203 425
e 203 427
e 203 432
e 203 438
e 203 443
e 203 444
e 203 505
e 203 530
e 203 540
e 203 558
e 203 569
e 203 586
e 203 614
e 203 629
e 203 645
e 203 701
e 203 704
e 203 707
e 203 723
e 203 809
e 203 829
e 203 860
e 203 863
e 203 885
e 203 896
e 203 929
e 203 958
e 203 969
e 204 258
e 204 261
e 204 269
e 204 291
e 204 297
e 204 299
e 204 320
e 204 329
e 204 351
e 204 357
e 204 359
e 204 362
e 204 380
e 204 402
e 204 433
e 204 456
e 204 460
e 204 492
e 204 539
e 204 541
e 204 559
e 204 565
e 204 584
e 204 603
e 204 662
e 204 679
e 204 681
e 204 704
e 204 724
e 204 725
e 204 735
e 204 742
e 204 755
e 204 770
e 204 781
e 204 792
e 204 804
e 204 869
e 204 895
e 204 940
e 204 951
e 204 973
e 205 261
e 205 270
e 205 285
e 205 311
e 205 318
e 205 339
e 205 343
e 205 403
e 205 406
e 205 414
e 205 415
e 205 428
e 205 433
e 205 442
e 205 456
e 205 459
e 205 478
e 205 517
e 205 529
e 205 536
e 205 561
e 205 567
e 205 637
e 205 640
e 205 669
e 205 684
e 205 691
e 205 730
e 205 735
e 205 791
e 205 854
e 205 889
e 205 907
e 205 921
e 205 926
e 205 932
e 205 933
e 205 940
e 205 950
e 205 959
e 206 260
e 206 263
e 206 334
e 206 356
e 206 363
e 206 371
e 206 374
e 206 387
e 206 423
e 206 556
e 206 569
e 206 579
e 206 584
e 206 601
e 206 617
e 206 620
e 206 627
e 206 644
e 206 683
e 206 704
e 206 705
e 206 751
e 206 823
e 206 826
e 206 842
e 206 843
e 206 872
e 206 922
e 206 971
e 206 983
e 206 984
e 207 347
e 207 360
e 207 416
e 207 450
e 207 462
e 207 545
e 207 579
e 207 606
e 207 656
e 207 657
e 207 667
e 207 670
e 207 680
e 207 709
e 207 712
e 207 718
e 207 757
e 207 770
e 207 819
e 207 839
e 207 842
e 207 877
e 207 894
e 207 895
e 207 951
e 207 992
e 208 262
e 208 294
e 208 324
e 208 398
e 208 403
e 208 408
e 208 428
e 208 505
e 208 530
e 208 585
e 208 593
e 208 595
e 208 617
e 208 681
e 208 684
e 208 726
e 208 731
e 208 750
e 208 760
e 208 787
e 208 814
e 208 825
e 208 830
e 208 834
e 208 853
e 208 884
e 208 917
e 208 963
e 209 253
e 209 257
e 209 260
e 209 287
e 209 306
e 209 319
e 209 321
e 209 334
e 209 368
e 209 401
e 209 461
e 209 483
e 209 527
e 209 550
e 209 556
e 209 608
e 209 624
e 209 636
e 209 706
e 209 725
e 209 763
e 209 774
e 209 792
e 209 806
e 209 815
e 209 817
e 209 832
e 209 838
e 209 846
e 209 857
e 209 864
e 209 867
e 209 872
e 209 903
e 209 936
e 209 971
e 209 982
e 210 256
e 210 295
e 210 318
e 210 335
e 210 337
e 210 341
e 210 346
e 210 355
e 210 363
e 210 409
e 210 440
e 210 506
e 210 526
e 210 547
e 210 553
e 210 560
e 210 561
e 210 609
e 210 617
e 210 628
e 210 642
e 210 682
e 210 689
e 210 723
e 210 730
e 210 737
e 210 780
e 210 806
e 210 846
e 210 877
e 210 901
e 210 911
e 210 946
e 210 963
e 210 972
e 211 258
e 211 274
e 211 291
e 211 327
e 211 335
e 211 341
e 211 394
e 211 397
e 211 405
e 211 409
e 211 410
e 211 521
e 211 535
e 211 577
e 211 586
e 211 616
e 211 622
e 211 652
e 211 664
e 211 677
e 211 726
e 211 741
e 211 800
e 211 842
e 211 850
e 211 866
e 211 903
e 211 910
e 211 919
e 211 974
e 212 258
e 212 286
e 212 301
e 212 304
e 212 305
e 212 346
e 212 397
e 212 403
e 212 405
e 212 412
e 212 414
e 212 435
e 212 458
e 212 460
e 212 480
e 212 526
e 212 544
e 212 580
e 212 582
e 212 602
e 212 608
e 212 620
e 212 638
e 212 668
e 212 685
e 212 752
e 212 806
e 212 819
e 212 827
e 212 850
e 212 853
e 212 857
e 212 896
e 212 939
e 212 951
e 212 983
e 212 985
e 213 264
e 213 271
e 213 324
e 213 369
e 213 392
e 213 426
e 213 485
e 213 508
e 213 511
e 213 515
e 213 521
e 213 524
e 213 550
e 213 588
e 213 611
e 213 623
e 213 639
e 213 668
e 213 687
e 213 711
e 213 762
e 213 765
e 213 803
e 213 859
e 213 864
e 213 867
e 213 900
e 213 915
e 213 942
e 213 948
e 213 958
e 213 969
e 213 989
e 214 253
e 214 283
e 214 286
e 214 307
e 214 308
e 214 372
e 214 420
e 214 426
e 214 433
e 214 460
e 214 468
e 214 471
e 214 472
e 214 498
e 214 499
e 214 563
e 214 570
e 214 631
e 214 641
e 214 656
e 214 706
e 214 721
e 214 753
e 214 771
e 214 786
e 214 813
e 214 854
e 214 864
e 214 881
e 214 884
e 214 890
e 214 891
e 214 944
e 214 946
e 214 968
e 214 992
e 215 252
e 215 259
e 215 268
e 215 274
e 215 346
e 215 356
e 215 379
e 215 426
e 215 450
e 215 454
e 215 462
e 215 474
e 215 477
e 215 522
e 215 560
e 215 593
e 215 612
e 215 619
e 215 622
e 215 649
e 215 682
e 215 710
e 215 735
e 215 746
e 215 750
e 215 784
e 215 861
e 215 881
e 215 928
e 215 941
e 215 968
e 215 970
e 215 975
e 216 274
e 216 279
e 216 280
e 216 296
e 216 302
e 216 332
e 216 348
e 216 349
e 216 377
e 216 407
e 216 435
e 216 448
e 216 468
e 216 526
e 216 540
e 216 572
e 216 626
e 216 628
e 216 631
e 216 669
e 216 677
e 216 685
e 216 701
e 216 704
e 216 707
e 216 710
e 216 730
e 216 751
e 216 824
e 216 825
e 216 837
e 216 865
e 216 924
e 216 972
e 216 989
e 216 991
e 217 319
e 217 339
e 217 352
e 217 359
e 217 360
e 217 368
e 217 374
e 217 381
e 217 386
e 217 470
e 217 481
e 217 482
e 217 505
e 217 510
e 217 531
e 217 597
e 217 609
e 217 621
e 217 628
e 217 640
e 217 667
e 217 692
e 217 735
e 217 757
e 217 766
e 217 781
e 217 818
e 217 825
e 217 838
e 217 896
e 217 949
e 217 961
e 217 995
e 218 251
e 218 294
e 218 304
e 218 307
e 218 308
e 218 354
e 218 359
e 218 389
e 218 408
e 218 413
e 218 439
e 218 448
e 218 455
e 218 483
e 218 500
e 218 526
e 218 547
e 218 555
e 218 557
e 218 579
e 218 604
e 218 614
e 218 650
e 218 653
e 218 654
e 218 658
e 218 688
e 218 691
e 218 692
e 218 713
e 218 728
e 218 737
e 218 779
e 218 822
e 218 826
e 218 865
e 218 899
e 218 901
e 218 902
e 218 913
e 218 914
e 218 927
e 218 928
e 218 929
e 218 943
e 218 945
e 218 972
e 218 978
e 218 992
e 219 315
e 219 320
e 219 323
e 219 336
e 219 366
e 219 380
e 219 381
e 219 399
e 219 412
e 219 420
e 219 423
e 219 424
e 219 466
e 219 467
e 219 486
e 219 487
e 219 492
e 219 514
e 219 549
e 219 567
e 219 594
e 219 621
e 219 642
e 219 652
e 219 659
e 219 676
e 219 701
e 219 702
e 219 721
e 219 730
e 219 762
e 219 765
e 219 776
e 219 778
e 219 780
e 219 795
e 219 872
e 219 889
e 219 981
e 220 272
e 220 282
e 220 287
e 220 290
e 220 308
e 220 314
e 220 345
e 220 348
e 220 355
e 220 363
e 220 372
e 220 408
e 220 412
e 220 417
e 220 419
e 220 420
e 220 429
e 220 477
e 220 538
e 220 591
e 220 606
e 220 637
e 220 700
e 220 713
e 220 721
e 220 724
e 220 730
e 220 759
e 220 766
e 220 812
e 220 825
e 220 840
e 220 858
e 220 861
e 220 864
e 220 888
e 220 907
e 220 933
e 220 959
e 220 964
e 220 966
e 220 999
e 221 284
e 221 293
e 221 316
e 221 330
e 221 351
e 221 360
e 221 368
e 221 378
e 221 391
e 221 420
e 221 450
e 221 498
e 221 511
e 221 544
e 221 588
e 221 603
e 221 616
e 221 631
e 221 641
e 221 648
e 221 658
e 221 684
e 221 693
e 221 719
e 221 748
e 221 775
e 221 793
e 221 799
e 221 806
e 221 840
e 221 865
e 221 877
e 221 879
e 221 928
e 221 968
e 221 970
e 221 971
e 221 983
e 222 274
e 222 287
e 222 294
e 222 313
e 222 382
e 222 415
e 222 455
e 222 478
e 222 484
e 222 521
e 222 524
e 222 535
e 222 560
e 222 591
e 222 608
e 222 620
e 222 647
e 222 653
e 222 671
e 222 700
e 222 768
e 222 771
e 222 831
e 222 880
e 222 889
e 222 895
e 222 916
e 222 922
e 222 968
e 222 983
e 222 995
e 223 252
e 223 279
e 223 281
e 223 298
e 223 309
e 223 318
e 223 324
e 223 329
e 223 342
e 223 351
e 223 361
e 223 371
e 223 392
e 223 400
e 223 410
e 223 436
e 223 437
e 223 484
e 223 492
e 223 529
e 223 579
e 223 596
e 223 598
e 223 615
e 223 688
e 223 755
e 223 763
e 223 797
e 223 819
e 223 845
e 223 884
e 223 893
e 223 911
e 223 912
e 223 944
e 223 952
e 223 956
e 223 978
e 224 308
e 224 331
e 224 351
e 224 360
e 224 431
e 224 453
e 224 532
e 224 630
e 224 637
e 224 645
e 224 692
e 224 697
e 224 705
e 224 717
e 224 718
e 224 749
e 224 750
e 224 754
e 224 772
e 224 819
e 224 841
e 224 875
e 224 881
e 224 891
e 224 896
e 224 927
e 224 948
e 224 990
e 225 259
e 225 279
e 225 317
e 225 331
e 225 356
e 225 365
e 225 367
e 225 412
e 225 478
e 225 497
e 225 502
e 225 516
e 225 520
e 225 551
e 225 573
e 225 577
e 225 578
e 225 630
e 225 664
e 225 668
e 225 674
e 225 685
e 225 698
e 225 727
e 225 735
e 225 755
e 225 829
e 225 837
e 225 841
e 225 858
e 225 872
e 225 934
e 225 946
e 225 983
e 226 253
e 226 257
e 226 283
e 226 298
e 226 335
e 226 337
e 226 338
e 226 343
e 226 393
e 226 427
e 226 454
e 226 458
e 226 459
e 226 460
e 226 463
e 226 473
e 226 474
e 226 477
e 226 486
e 226 498
e 226 501
e 226 513
e 226 523
e 226 525
e 226 534
e 226 685
e 226 687
e 226 707
e 226 719
e 226 737
e 226 745
e 226 757
e 226 782
e 226 794
e 226 809
e 226 822
e 226 823
e 226 876
e 226 885
e 226 913
e 226 929
e 226 932
e 226 948
e 226 974
e 227 279
e 227 284
e 227 287
e 227 314
e 227 346
e 227 353
e 227 354
e 227 383
e 227 395
e 227 405
e 227 434
e 227 440
e 227 452
e 227 461
e 227 477
e 227 480
e 227 501
e 227 514
e 227 546
e 227 578
e 227 588
e 227 589
e 227 614
e 227 616
e 227 626
e 227 627
e 227 664
e 227 692
e 227 709
e 227 710
e 227 726
e 227 750
e 227 761
e 227 784
e 227 817
e 227 832
e 227 835
e 227 876
e 227 918
e 227 929
e 227 944
e 227 975
e 227 990
e 228 270
e 228 321
e 228 323
e 228 342
e 228 350
e 228 375
e 228 376
e 228 417
e 228 434
e 228 436
e 228 514
e 228 521
e 228 556
e 228 572
e 228 582
e 228 590
e 228 593
e 228 646
e 228 656
e 228 675
e 228 676
e 228 679
e 228 722
e 228 748
e 228 753
e 228 835
e 228 849
e 228 866
e 228 870
e 228 882
e 228 892
e 228 908
e 228 960
e 228 975
e 229 260
e 229 272
e 229 302
e 229 364
e 229 366
e 229 371
e 229 373
e 229 412
e 229 418
e 229 451
e 229 456
e 229 460
e 229 469
e 229 477
e 229 492
e 229 521
e 229 535
e 229 552
e 229 617
e 229 624
e 229 635
e 229 662
e 229 681
e 229 693
e 229 701
e 229 750
e 229 772
e 229 773
e 229 775
e 229 800
e 229 817
e 229 836
e 229 864
e 229 879
e 229 884
e 229 927
e 229 962
e 229 997
e 230 309
e 230 331
e 230 338
e 230 353
e 230 364
e 230 460
e 230 471
e 230 473
e 230 482
e 230 500
e 230 542
e 230 544
e 230 551
e 230 587
e 230 599
e 230 611
e 230 687
e 230 722
e 230 755
e 230 775
e 230 852
e 230 864
e 230 878
e 230 889
e 230 924
e 230 930
e 230 934
e 230 950
e 230 955
e 230 988
e 231 255
e 231 258
e 231 290
e 231 321
e 231 324
e 231 331
e 231 332
e 231 340
e 231 361
e 231 368
e 231 413
e 231 442
e 231 494
e 231 546
e 231 559
e 231 613
e 231 621
e 231 622
e 231 642
e 231 645
e 231 647
e 231 707
e 231 774
e 231 785
e 231 787
e 231 812
e 231 851
e 231 862
e 231 944
e 231 952
e 231 991
e 232 325
e 232 346
e 232 362
e 232 363
e 232 409
e 232 427
e 232 513
e 232 526
e 232 559
e 232 574
e 232 654
e 232 655
e 232 687
e 232 691
e 232 699
e 232 702
e 232 767
e 232 775
e 232 802
e 232 804
e 232 823
e 232 828
e 232 846
e 232 873
e 232 883
e 232 897
e 232 924
e 232 931
e 232 957
e 232 959
e 232 985
e 232 998
e 233 265
e 233 274
e 233 284
e 233 292
e 233 319
e 233 326
e 233 334
e 233 339
e 233 377
e 233 386
e 233 427
e 233 451
e 233 455
e 233 483
e 233 489
e 233 566
e 233 572
e 233 654
e 233 674
e 233 681
e 233 683
e 233 703
e 233 715
e 233 720
e 233 730
e 233 772
e 233 809
e 233 810
e 233 834
e 233 848
e 233 860
e 233 869
e 233 902
e 233 918
e 233 925
e 233 934
e 233 955
e 233 964
e 233 994
e 234 255
e 234 275
e 234 310
e 234 344
e 234 371
e 234 421
e 234 455
e 234 495
e 234 505
e 234 524
e 234 552
e 234 558
e 234 587
e 234 588
e 234 600
e 234 614
e 234 640
e 234 653
e 234 655
e 234 725
e 234 742
e 234 746
e 234 762
e 234 803
e 234 824
e 234 830
e 234 863
e 234 877
e 234 896
e 234 899
e 234 903
e 234 944
e 234 968
e 234 969
e 235 269
e 235 314
e 235 379
e 235 386
e 235 391
e 235 449
e 235 457
e 235 481
e 235 492
e 235 501
e 235 507
e 235 510
e 235 518
e 235 528
e 235 568
e 235 589
e 235 592
e 235 616
e 235 628
e 235 664
e 235 694
e 235 704
e 235 737
e 235 746
e 235 760
e 235 772
e 235 773
e 235 779
e 235 797
e 235 798
e 235 799
e 235 808
e 235 836
e 235 850
e 235 853
e 235 923
e 236 269
e 236 279
e 236 284
e 236 315
e 236 375
e 236 378
e 236 398
e 236 453
e 236 454
e 236 477
e 236 503
e 236 504
e 236 509
e 236 510
e 236 531
e 236 539
e 236 550
e 236 571
e 236 639
e 236 690
e 236 760
e 236 802
e 236 809
e 236 842
e 236 858
e 236 866
e 236 869
e 236 875
e 236 888
e 236 893
e 236 896
e 236 901
e 236 917
e 236 970
e 237 337
e 237 342
e 237 354
e 237 391
e 237 498
e 237 514
e 237 552
e 237 564
e 237 615
e 237 625
e 237 684
e 237 690
e 237 699
e 237 735
e 237 745
e 237 789
e 237 800
e 237 804
e 237 827
e 237 832
e 237 841
e 237 856
e 237 913
e 237 924
e 237 950
e 237 960
e 237 977
e 238 264
e 238 330
e 238 339
e 238 344
e 238 347
e 238 364
e 238 385
e 238 423
e 238 426
e 238 444
e 238 451
e 238 467
e 238 495
e 238 516
e 238 528
e 238 534
e 238 536
e 238 545
e 238 566
e 238 589
e 238 598
e 238 601
e 238 602
e 238 608
e 238 611
e 238 673
e 238 682
e 238 734
e 238 747
e 238 753
e 238 758
e 238 769
e 238 857
e 238 858
e 238 880
e 238 909
e 238 922
e 238 936
e 238 940
e 238 959
e 238 978
e 239 276
e 239 286
e 239 288
e 239 293
e 239 303
e 239 305
e 239 315
e 239 343
e 239 365
e 239 409
e 239 427
e 239 452
e 239 482
e 239 486
e 239 525
e 239 532
e 239 561
e 239 570
e 239 598
e 239 638
e 239 667
e 239 682
e 239 700
e 239 738
e 239 770
e 239 776
e 239 777
e 239 837
e 239 844
e 239 935
e 239 958
e 239 986
e 240 261
e 240 312
e 240 313
e 240 319
e 240 335
e 240 342
e 240 344
e 240 401
e 240 414
e 240 452
e 240 475
e 240 479
e 240 508
e 240 539
e 240 548
e 240 564
e 240 580
e 240 583
e 240 629
e 240 655
e 240 672
e 240 693
e 240 736
e 240 761
e 240 770
e 240 791
e 240 794
e 240 796
e 240 820
e 240 821
e 240 833
e 240 837
e 240 883
e 240 914
e 240 924
e 240 964
e 240 972
e 241 273
e 241 276
e 241 283
e 241 296
e 241 344
e 241 346
e 241 348
e 241 367
e 241 380
e 241 387
e 241 395
e 241 400
e 241 416
e 241 443
e 241 454
e 241 523
e 241 528
e 241 587
e 241 597
e 241 614
e 241 626
e 241 650
e 241 654
e 241 692
e 241 724
e 241 741
e 241 745
e 241 747
e 241 764
e 241 765
e 241 772
e 241 799
e 241 899
e 241 946
e 241 950
e 242 296
e 242 308
e 242 358
e 242 376
e 242 388
e 242 397
e 242 402
e 242 441
e 242 442
e 242 480
e 242 522
e 242 527
e 242 543
e 242 551
e 242 563
e 242 570
e 242 581
e 242 590
e 242 602
e 242 643
e 242 651
e 242 665
e 242 671
e 242 701
e 242 739
e 242 768
e 242 786
e 242 819
e 242 834
e 242 854
e 242 873
e 242 881
e 242 921
e 242 922
e 242 934
e 242 947
e 242 961
e 242 966
e 242 972
e 242 989
e 242 999
e 243 313
e 243 318
e 243 334
e 243 335
e 243 338
e 243 360
e 243 376
e 243 430
e 243 471
e 243 481
e 243 486
e 243 490
e 243 494
e 243 514
e 243 546
e 243 551
e 243 556
e 243 564
e 243 589
e 243 654
e 243 659
e 243 699
e 243 709
e 243 712
e 243 720
e 243 724
e 243 745
e 243 747
e 243 754
e 243 764
e 243 805
e 243 829
e 243 848
e 243 850
e 243 871
e 243 885
e 243 907
e 243 911
e 243 937
e 243 961
e 244 262
e 244 270
e 244 282
e 244 309
e 244 360
e 244 396
e 244 423
e 244 491
e 244 495
e 244 533
e 244 549
e 244 561
e 244 610
e 244 647
e 244 664
e 244 666
e 244 697
e 244 703
e 244 704
e 244 792
e 244 794
e 244 803
e 244 809
e 244 814
e 244 830
e 244 831
e 244 849
e 244 850
e 244 855
e 244 861
e 244 866
e 244 947
e 244 954
e 244 975
e 245 255
e 245 285
e 245 320
e 245 324
e 245 327
e 245 362
e 245 426
e 245 443
e 245 445
e 245 460
e 245 461
e 245 469
e 245 509
e 245 534
e 245 553
e 245 578
e 245 600
e 245 617
e 245 624
e 245 646
e 245 665
e 245 684
e 245 754
e 245 755
e 245 763
e 245 795
e 245 796
e 245 845
e 245 866
e 245 922
e 245 932
e 245 934
e 245 938
e 245 951
e 245 980
e 245 981
e 246 327
e 246 342
e 246 347
e 246 362
e 246 384
e 246 434
e 246 468
e 246 485
e 246 486
e 246 513
e 246 521
e 246 525
e 246 549
e 246 554
e 246 579
e 246 585
e 246 596
e 246 625
e 246 719
e 246 731
e 246 758
e 246 786
e 246 803
e 246 829
e 246 834
e 246 842
e 246 860
e 246 868
e 246 879
e 246 885
e 246 908
e 246 927
e 246 928
e 247 274
e 247 283
e 247 295
e 247 304
e 247 306
e 247 314
e 247 341
e 247 364
e 247 397
e 247 401
e 247 413
e 247 428
e 247 430
e 247 432
e 247 434
e 247 454
e 247 483
e 247 521
e 247 537
e 247 541
e 247 578
e 247 583
e 247 634
e 247 639
e 247 641
e 247 644
e 247 650
e 247 659
e 247 679
e 247 710
e 247 728
e 247 734
e 247 768
e 247 769
e 247 773
e 247 786
e 247 806
e 247 816
e 247 851
e 247 860
e 247 864
e 247 877
e 247 879
e 247 889
e 247 925
e 247 932
e 247 976
e 248 331
e 248 337
e 248 354
e 248 356
e 248 370
e 248 376
e 248 385
e 248 406
e 248 417
e 248 436
e 248 446
e 248 466
e 248 469
e 248 540
e 248 547
e 248 560
e 248 568
e 248 572
e 248 578
e 248 605
e 248 626
e 248 627
e 248 630
e 248 632
e 248 689
e 248 713
e 248 716
e 248 734
e 248 760
e 248 780
e 248 801
e 248 827
e 248 841
e 248 890
e 248 932
e 248 942
e 248 947
e 248 950
e 248 954
e 248 965
e 249 278
e 249 295
e 249 349
e 249 355
e 249 364
e 249 413
e 249 433
e 249 447
e 249 454
e 249 461
e 249 464
e 249 499
e 249 541
e 249 555
e 249 579
e 249 598
e 249 601
e 249 619
e 249 642
e 249 649
e 249 650
e 249 668
e 249 715
e 249 726
e 249 750
e 249 755
e 249 758
e 249 773
e 249 804
e 249 839
e 249 890
e 249 909
e 249 912
e 249 940
e 249 957
e 249 960
e 249 979
e 249 995
e 250 253
e 250 261
e 250 321
e 250 355
e 250 381
e 250 385
e 250 425
e 250 432
e 250 441
e 250 465
e 250 467
e 250 470
e 250 496
e 250 504
e 250 510
e 250 531
e 250 539
e 250 540
e 250 547
e 250 559
e 250 595
e 250 610
e 250 626
e 250 668
e 250 685
e 250 731
e 250 749
e 250 765
e 250 769
e 250 773
e 250 837
e 250 844
e 250 857
e 250 868
e 250 901
e 250 919
e 250 921
e 250 930
e 250 932
e 250 952
e 250 975
e 250 992
