p edge 1000 5531
e 1 277
e 1 286
e 1 302
e 1 303
e 1 321
e 1 329
e 1 373
e 1 376
e 1 387
e 1 411
e 1 490
e 1 500
e 1 566
e 1 613
e 1 614
e 1 618
e 1 687
e 1 771
e 1 790
e 1 885
e 1 893
e 1 927
e 1 952
e 1 953
e 1 976
e 2 262
e 2 269
e 2 294
e 2 298
e 2 301
e 2 318
e 2 321
e 2 346
e 2 426
e 2 453
e 2 467
e 2 506
e 2 533
e 2 651
e 2 656
e 2 761
e 2 770
e 2 942
e 2 976
e 2 990
e 3 262
e 3 269
e 3 307
e 3 351
e 3 382
e 3 416
e 3 460
e 3 504
e 3 509
e 3 587
e 3 678
e 3 705
e 3 715
e 3 725
e 3 726
e 3 774
e 3 788
e 3 837
e 3 899
e 3 904
e 3 941
e 3 982
e 4 280
e 4 331
e 4 389
e 4 542
e 4 543
e 4 547
e 4 564
e 4 572
e 4 619
e 4 660
e 4 661
e 4 666
e 4 667
e 4 712
e 4 719
e 4 745
e 4 777
e 4 902
e 4 910
e 5 282
e 5 337
e 5 397
e 5 423
e 5 428
e 5 442
e 5 457
e 5 469
e 5 524
e 5 563
e 5 565
e 5 577
e 5 634
e 5 644
e 5 661
e 5 673
e 5 677
e 5 679
e 5 698
e 5 707
e 5 716
e 5 751
e 5 772
e 5 778
e 5 804
e 5 893
e 5 920
e 5 949
e 5 961
e 5 975
e 6 252
e 6 273
e 6 284
e 6 305
e 6 347
e 6 369
e 6 492
e 6 526
e 6 535
e 6 559
e 6 593
e 6 599
e 6 637
e 6 680
e 6 682
e 6 715
e 6 724
e 6 744
e 6 756
e 6 776
e 6 889
e 6 911
e 6 924
e 7 257
e 7 303
e 7 307
e 7 344
e 7 361
e 7 391
e 7 421
e 7 466
e 7 474
e 7 524
e 7 534
e 7 564
e 7 607
e 7 660
e 7 720
e 7 796
e 7 812
e 7 838
e 7 840
e 7 867
e 7 898
e 7 904
e 7 907
e 7 931
e 7 988
e 8 257
e 8 298
e 8 360
e 8 398
e 8 441
e 8 444
e 8 623
e 8 640
e 8 722
e 8 761
e 8 792
e 8 803
e 8 854
e 8 876
e 8 890
e 8 924
e 9 299
e 9 305
e 9 338
e 9 397
e 9 399
e 9 411
e 9 451
e 9 498
e 9 536
e 9 555
e 9 561
e 9 606
e 9 660
e 9 712
e 9 779
e 9 833
e 9 871
e 9 885
e 9 918
e 9 970
e 9 977
e 9 986
e 10 252
e 10 288
e 10 289
e 10 308
e 10 399
e 10 431
e 10 502
e 10 512
e 10 574
e 10 589
e 10 590
e 10 595
e 10 613
e 10 640
e 10 642
e 10 644
e 10 656
e 10 691
e 10 708
e 10 737
e 10 770
e 10 797
e 10 848
e 10 883
e 10 974
e 11 305
e 11 333
e 11 365
e 11 432
e 11 439
e 11 453
e 11 465
e 11 470
e 11 497
e 11 555
e 11 586
e 11 605
e 11 653
e 11 693
e 11 710
e 11 791
e 11 824
e 11 881
e 11 889
e 11 899
e 11 904
e 11 926
e 11 959
e 11 995
e 12 341
e 12 377
e 12 524
e 12 525
e 12 545
e 12 552
e 12 571
e 12 582
e 12 621
e 12 629
e 12 712
e 12 787
e 12 836
e 12 979
e 13 267
e 13 278
e 13 304
e 13 437
e 13 442
e 13 454
e 13 458
e 13 469
e 13 526
e 13 600
e 13 614
e 13 645
e 13 662
e 13 684
e 13 843
e 13 903
e 13 914
e 13 972
e 13 996
e 14 264
e 14 294
e 14 295
e 14 383
e 14 389
e 14 411
e 14 503
e 14 548
e 14 557
e 14 606
e 14 641
e 14 673
e 14 727
e 14 772
e 14 783
e 14 808
e 14 822
e 14 872
e 14 896
e 14 932
e 14 959
e 15 271
e 15 316
e 15 318
e 15 335
e 15 441
e 15 446
e 15 455
e 15 480
e 15 504
e 15 532
e 15 644
e 15 655
e 15 739
e 15 772
e 15 776
e 15 855
e 15 859
e 15 918
e 15 924
e 15 982
e 16 382
e 16 447
e 16 460
e 16 531
e 16 551
e 16 612
e 16 614
e 16 624
e 16 635
e 16 667
e 16 672
e 16 676
e 16 726
e 16 748
e 16 790
e 16 816
e 16 869
e 16 925
e 16 943
e 16 953
e 17 292
e 17 332
e 17 360
e 17 422
e 17 441
e 17 460
e 17 487
e 17 510
e 17 533
e 17 553
e 17 562
e 17 598
e 17 603
e 17 638
e 17 643
e 17 663
e 17 712
e 17 724
e 17 727
e 17 791
e 17 863
e 17 880
e 17 915
e 17 953
e 18 279
e 18 315
e 18 370
e 18 381
e 18 404
e 18 411
e 18 441
e 18 442
e 18 538
e 18 565
e 18 566
e 18 795
e 18 808
e 18 819
e 18 909
e 18 957
e 18 992
e 19 260
e 19 408
e 19 416
e 19 417
e 19 527
e 19 590
e 19 640
e 19 654
e 19 748
e 19 759
e 19 766
e 19 842
e 19 847
e 19 861
e 19 867
e 19 895
e 19 923
e 19 990
e 19 995
e 20 301
e 20 342
e 20 357
e 20 452
e 20 498
e 20 627
e 20 633
e 20 760
e 20 817
e 20 871
e 20 955
e 20 966
e 21 284
e 21 303
e 21 314
e 21 342
e 21 368
e 21 376
e 21 388
e 21 400
e 21 404
e 21 405
e 21 549
e 21 561
e 21 596
e 21 603
e 21 610
e 21 639
e 21 654
e 21 689
e 21 760
e 21 775
e 21 786
e 21 795
e 21 876
e 21 901
e 21 978
e 22 359
e 22 405
e 22 505
e 22 509
e 22 520
e 22 601
e 22 604
e 22 642
e 22 660
e 22 687
e 22 706
e 22 745
e 22 788
e 22 831
e 22 892
e 22 897
e 22 970
e 22 984
e 23 302
e 23 375
e 23 395
e 23 396
e 23 414
e 23 434
e 23 463
e 23 483
e 23 564
e 23 565
e 23 566
e 23 583
e 23 590
e 23 619
e 23 621
e 23 671
e 23 710
e 23 751
e 23 780
e 23 821
e 23 823
e 23 928
e 23 963
e 23 966
e 23 982
e 23 999
e 24 283
e 24 290
e 24 297
e 24 320
e 24 439
e 24 449
e 24 460
e 24 471
e 24 496
e 24 572
e 24 592
e 24 604
e 24 605
e 24 616
e 24 652
e 24 684
e 24 719
e 24 748
e 24 760
e 24 790
e 24 806
e 24 855
e 24 867
e 24 887
e 24 891
e 25 274
e 25 282
e 25 313
e 25 337
e 25 363
e 25 398
e 25 420
e 25 436
e 25 439
e 25 485
e 25 499
e 25 549
e 25 568
e 25 594
e 25 640
e 25 735
e 25 792
e 25 818
e 25 819
e 25 822
e 25 860
e 25 875
e 25 903
e 25 921
e 25 929
e 25 933
e 25 944
e 25 962
e 25 965
e 25 966
e 25 998
e 26 270
e 26 297
e 26 330
e 26 429
e 26 488
e 26 537
e 26 543
e 26 549
e 26 578
e 26 624
e 26 626
e 26 630
e 26 660
e 26 679
e 26 693
e 26 763
e 26 779
e 26 785
e 26 806
e 26 826
e 26 838
e 26 926
e 26 935
e 26 966
e 27 252
e 27 270
e 27 281
e 27 283
e 27 308
e 27 327
e 27 366
e 27 397
e 27 408
e 27 482
e 27 525
e 27 577
e 27 591
e 27 609
e 27 671
e 27 673
e 27 684
e 27 779
e 27 895
e 27 898
e 27 951
e 27 960
e 28 271
e 28 298
e 28 323
e 28 425
e 28 451
e 28 459
e 28 501
e 28 559
e 28 561
e 28 584
e 28 596
e 28 619
e 28 626
e 28 663
e 28 700
e 28 702
e 28 769
e 28 780
e 28 782
e 28 799
e 28 808
e 28 816
e 28 922
e 28 927
e 28 960
e 28 973
e 29 306
e 29 339
e 29 429
e 29 452
e 29 538
e 29 554
e 29 566
e 29 603
e 29 611
e 29 612
e 29 622
e 29 713
e 29 720
e 29 723
e 29 769
e 29 770
e 29 776
e 29 806
e 29 846
e 29 858
e 29 876
e 29 912
e 29 924
e 29 935
e 29 940
e 29 966
e 30 252
e 30 281
e 30 295
e 30 329
e 30 353
e 30 400
e 30 426
e 30 461
e 30 466
e 30 477
e 30 497
e 30 518
e 30 530
e 30 546
e 30 588
e 30 657
e 30 716
e 30 763
e 30 783
e 30 801
e 30 820
e 31 257
e 31 296
e 31 359
e 31 395
e 31 430
e 31 435
e 31 466
e 31 484
e 31 488
e 31 489
e 31 508
e 31 525
e 31 564
e 31 689
e 31 721
e 31 788
e 31 839
e 31 931
e 31 936
e 31 978
e 31 993
e 32 251
e 32 261
e 32 303
e 32 315
e 32 406
e 32 427
e 32 428
e 32 459
e 32 473
e 32 525
e 32 547
e 32 556
e 32 597
e 32 622
e 32 659
e 32 683
e 32 751
e 32 826
e 32 849
e 32 856
e 32 877
e 32 957
e 32 995
e 33 276
e 33 303
e 33 340
e 33 364
e 33 375
e 33 379
e 33 389
e 33 427
e 33 429
e 33 484
e 33 536
e 33 596
e 33 634
e 33 643
e 33 691
e 33 699
e 33 733
e 33 772
e 33 805
e 33 820
e 33 841
e 33 868
e 33 942
e 34 339
e 34 384
e 34 441
e 34 462
e 34 509
e 34 556
e 34 621
e 34 832
e 34 871
e 34 947
e 34 969
e 35 278
e 35 315
e 35 396
e 35 459
e 35 463
e 35 507
e 35 509
e 35 561
e 35 588
e 35 589
e 35 656
e 35 738
e 35 887
e 36 265
e 36 270
e 36 271
e 36 307
e 36 396
e 36 420
e 36 432
e 36 436
e 36 605
e 36 662
e 36 674
e 36 677
e 36 807
e 36 812
e 36 849
e 36 888
e 36 898
e 36 916
e 36 945
e 36 953
e 36 954
e 37 270
e 37 392
e 37 398
e 37 450
e 37 462
e 37 515
e 37 528
e 37 566
e 37 589
e 37 590
e 37 624
e 37 644
e 37 681
e 37 713
e 37 717
e 37 718
e 37 787
e 37 792
e 37 854
e 37 889
e 37 894
e 37 933
e 37 951
e 37 981
e 37 992
e 38 281
e 38 331
e 38 368
e 38 426
e 38 462
e 38 466
e 38 480
e 38 504
e 38 508
e 38 511
e 38 545
e 38 583
e 38 590
e 38 598
e 38 633
e 38 687
e 38 689
e 38 742
e 38 744
e 38 764
e 38 773
e 38 811
e 38 851
e 38 876
e 38 894
e 38 904
e 38 919
e 38 933
e 38 939
e 38 943
e 38 944
e 39 285
e 39 312
e 39 349
e 39 382
e 39 385
e 39 404
e 39 491
e 39 492
e 39 519
e 39 526
e 39 530
e 39 539
e 39 582
e 39 628
e 39 655
e 39 659
e 39 677
e 39 682
e 39 732
e 39 751
e 39 772
e 39 835
e 39 930
e 39 950
e 40 252
e 40 284
e 40 328
e 40 392
e 40 397
e 40 424
e 40 467
e 40 609
e 40 654
e 40 662
e 40 686
e 40 692
e 40 700
e 40 782
e 40 783
e 40 827
e 40 871
e 40 900
e 40 903
e 40 941
e 40 956
e 41 274
e 41 346
e 41 363
e 41 364
e 41 365
e 41 379
e 41 417
e 41 487
e 41 499
e 41 522
e 41 529
e 41 564
e 41 578
e 41 592
e 41 597
e 41 619
e 41 634
e 41 653
e 41 720
e 41 758
e 41 775
e 41 802
e 41 834
e 41 946
e 41 955
e 41 965
e 41 976
e 42 280
e 42 292
e 42 302
e 42 303
e 42 308
e 42 338
e 42 378
e 42 386
e 42 404
e 42 407
e 42 440
e 42 489
e 42 522
e 42 530
e 42 570
e 42 601
e 42 629
e 42 691
e 42 736
e 42 747
e 42 760
e 42 926
e 42 962
e 43 285
e 43 300
e 43 312
e 43 331
e 43 358
e 43 393
e 43 426
e 43 435
e 43 464
e 43 484
e 43 486
e 43 551
e 43 607
e 43 666
e 43 690
e 43 740
e 43 826
e 43 832
e 43 863
e 43 872
e 43 877
e 43 900
e 43 924
e 43 927
e 43 943
e 43 944
e 43 969
e 43 985
e 43 993
e 44 252
e 44 312
e 44 327
e 44 340
e 44 345
e 44 391
e 44 407
e 44 446
e 44 459
e 44 470
e 44 488
e 44 501
e 44 522
e 44 662
e 44 715
e 44 807
e 44 856
e 44 857
e 44 916
e 44 917
e 44 980
e 45 251
e 45 305
e 45 330
e 45 331
e 45 332
e 45 336
e 45 346
e 45 356
e 45 370
e 45 409
e 45 476
e 45 518
e 45 585
e 45 587
e 45 590
e 45 601
e 45 646
e 45 649
e 45 679
e 45 684
e 45 694
e 45 745
e 45 812
e 45 862
e 45 899
e 45 921
e 45 931
e 45 961
e 46 258
e 46 322
e 46 357
e 46 366
e 46 412
e 46 418
e 46 421
e 46 471
e 46 540
e 46 636
e 46 640
e 46 675
e 46 692
e 46 725
e 46 811
e 46 851
e 46 867
e 46 914
e 46 923
e 46 967
e 46 970
e 46 978
e 47 256
e 47 285
e 47 337
e 47 391
e 47 392
e 47 404
e 47 435
e 47 473
e 47 517
e 47 530
e 47 564
e 47 568
e 47 590
e 47 596
e 47 606
e 47 689
e 47 713
e 47 714
e 47 730
e 47 746
e 47 767
e 47 781
e 47 954
e 48 303
e 48 385
e 48 441
e 48 591
e 48 594
e 48 640
e 48 697
e 48 714
e 48 737
e 48 806
e 48 818
e 48 829
e 48 874
e 48 875
e 48 890
e 49 268
e 49 301
e 49 313
e 49 342
e 49 358
e 49 394
e 49 436
e 49 438
e 49 448
e 49 449
e 49 471
e 49 491
e 49 583
e 49 587
e 49 663
e 49 681
e 49 698
e 49 795
e 49 833
e 49 850
e 49 868
e 49 890
e 49 911
e 49 950
e 49 964
e 49 974
e 49 1000
e 50 260
e 50 267
e 50 277
e 50 279
e 50 348
e 50 399
e 50 401
e 50 436
e 50 450
e 50 498
e 50 522
e 50 566
e 50 592
e 50 703
e 50 707
e 50 733
e 50 744
e 50 750
e 50 786
e 50 792
e 50 804
e 50 854
e 50 870
e 50 876
e 50 933
e 50 1000
e 51 251
e 51 260
e 51 396
e 51 442
e 51 451
e 51 464
e 51 542
e 51 552
e 51 555
e 51 565
e 51 696
e 51 711
e 51 717
e 51 735
e 51 745
e 51 826
e 51 883
e 51 906
e 51 913
e 51 949
e 51 954
e 51 997
e 52 256
e 52 283
e 52 335
e 52 336
e 52 364
e 52 372
e 52 380
e 52 383
e 52 411
e 52 462
e 52 496
e 52 508
e 52 514
e 52 646
e 52 715
e 52 733
e 52 735
e 52 736
e 52 745
e 52 752
e 52 755
e 52 856
e 52 869
e 52 880
e 52 888
e 52 906
e 53 284
e 53 289
e 53 301
e 53 344
e 53 350
e 53 448
e 53 457
e 53 516
e 53 553
e 53 569
e 53 665
e 53 721
e 53 725
e 53 763
e 53 821
e 53 876
e 53 915
e 53 917
e 53 954
e 53 993
e 54 283
e 54 344
e 54 349
e 54 366
e 54 394
e 54 427
e 54 435
e 54 445
e 54 509
e 54 532
e 54 549
e 54 608
e 54 650
e 54 674
e 54 685
e 54 692
e 54 733
e 54 751
e 54 755
e 54 766
e 54 833
e 54 852
e 54 905
e 54 911
e 54 918
e 54 980
e 54 1000
e 55 266
e 55 339
e 55 364
e 55 396
e 55 404
e 55 471
e 55 486
e 55 500
e 55 587
e 55 637
e 55 668
e 55 675
e 55 715
e 55 751
e 55 764
e 55 841
e 55 854
e 55 859
e 55 863
e 55 904
e 55 913
e 55 945
e 55 951
e 56 264
e 56 281
e 56 344
e 56 380
e 56 455
e 56 555
e 56 590
e 56 670
e 56 684
e 56 694
e 56 738
e 56 773
e 56 784
e 56 785
e 56 794
e 56 802
e 56 804
e 56 811
e 56 838
e 56 841
e 56 912
e 56 937
e 56 941
e 56 969
e 57 285
e 57 289
e 57 335
e 57 343
e 57 372
e 57 396
e 57 461
e 57 496
e 57 501
e 57 545
e 57 548
e 57 585
e 57 612
e 57 644
e 57 645
e 57 743
e 57 749
e 57 757
e 57 776
e 57 781
e 57 792
e 57 793
e 57 869
e 57 872
e 57 925
e 58 251
e 58 256
e 58 266
e 58 388
e 58 405
e 58 454
e 58 531
e 58 547
e 58 606
e 58 616
e 58 641
e 58 659
e 58 678
e 58 685
e 58 688
e 58 750
e 58 761
e 58 783
e 58 798
e 58 806
e 58 829
e 58 872
e 58 886
e 58 896
e 58 922
e 58 928
e 58 943
e 59 401
e 59 436
e 59 453
e 59 488
e 59 498
e 59 527
e 59 528
e 59 555
e 59 621
e 59 630
e 59 653
e 59 812
e 59 828
e 59 884
e 59 896
e 59 899
e 59 914
e 59 948
e 59 972
e 60 253
e 60 264
e 60 278
e 60 333
e 60 345
e 60 375
e 60 475
e 60 476
e 60 521
e 60 531
e 60 536
e 60 598
e 60 619
e 60 636
e 60 697
e 60 786
e 60 805
e 60 815
e 60 887
e 60 901
e 60 933
e 60 965
e 60 982
e 61 266
e 61 293
e 61 404
e 61 430
e 61 449
e 61 456
e 61 516
e 61 563
e 61 586
e 61 613
e 61 694
e 61 735
e 61 741
e 61 757
e 61 760
e 61 767
e 61 794
e 61 800
e 61 856
e 61 905
e 61 907
e 61 937
e 61 942
e 61 975
e 62 288
e 62 289
e 62 292
e 62 349
e 62 395
e 62 450
e 62 492
e 62 604
e 62 644
e 62 658
e 62 671
e 62 672
e 62 692
e 62 710
e 62 721
e 62 727
e 62 729
e 62 833
e 63 271
e 63 329
e 63 335
e 63 342
e 63 390
e 63 439
e 63 452
e 63 464
e 63 486
e 63 497
e 63 509
e 63 516
e 63 542
e 63 557
e 63 593
e 63 607
e 63 628
e 63 700
e 63 701
e 63 718
e 63 752
e 63 840
e 63 861
e 63 869
e 63 899
e 63 912
e 63 957
e 63 979
e 63 994
e 64 266
e 64 296
e 64 330
e 64 359
e 64 377
e 64 382
e 64 513
e 64 529
e 64 613
e 64 682
e 64 687
e 64 688
e 64 706
e 64 739
e 64 801
e 64 823
e 64 853
e 64 882
e 64 889
e 64 923
e 64 972
e 64 976
e 65 252
e 65 259
e 65 310
e 65 311
e 65 354
e 65 360
e 65 363
e 65 385
e 65 419
e 65 473
e 65 509
e 65 568
e 65 590
e 65 659
e 65 685
e 65 716
e 65 759
e 65 807
e 65 828
e 65 906
e 65 920
e 65 934
e 65 956
e 66 307
e 66 331
e 66 338
e 66 355
e 66 365
e 66 421
e 66 427
e 66 430
e 66 469
e 66 488
e 66 519
e 66 559
e 66 643
e 66 759
e 66 777
e 66 851
e 66 894
e 66 976
e 67 275
e 67 302
e 67 327
e 67 339
e 67 375
e 67 377
e 67 423
e 67 501
e 67 512
e 67 526
e 67 546
e 67 547
e 67 580
e 67 647
e 67 653
e 67 682
e 67 695
e 67 699
e 67 720
e 67 741
e 67 775
e 67 778
e 67 781
e 67 856
e 67 868
e 67 888
e 67 1000
e 68 344
e 68 345
e 68 417
e 68 433
e 68 439
e 68 470
e 68 482
e 68 488
e 68 493
e 68 513
e 68 541
e 68 609
e 68 629
e 68 630
e 68 641
e 68 661
e 68 709
e 68 731
e 68 744
e 68 783
e 68 876
e 68 903
e 68 905
e 68 934
e 68 940
e 68 944
e 68 976
e 68 983
e 69 254
e 69 258
e 69 266
e 69 388
e 69 430
e 69 498
e 69 539
e 69 558
e 69 572
e 69 589
e 69 642
e 69 677
e 69 691
e 69 712
e 69 714
e 69 755
e 69 757
e 69 758
e 69 783
e 69 820
e 69 826
e 69 841
e 69 849
e 69 920
e 69 969
e 69 999
e 70 345
e 70 359
e 70 376
e 70 410
e 70 413
e 70 446
e 70 468
e 70 476
e 70 487
e 70 517
e 70 545
e 70 580
e 70 611
e 70 637
e 70 695
e 70 710
e 70 732
e 70 760
e 70 762
e 70 790
e 70 869
e 70 870
e 70 903
e 70 916
e 70 944
e 70 959
e 70 976
e 71 294
e 71 314
e 71 353
e 71 379
e 71 388
e 71 407
e 71 494
e 71 563
e 71 588
e 71 621
e 71 692
e 71 716
e 71 731
e 71 785
e 71 812
e 71 826
e 71 925
e 71 928
e 71 939
e 72 271
e 72 272
e 72 280
e 72 353
e 72 397
e 72 398
e 72 414
e 72 416
e 72 444
e 72 459
e 72 496
e 72 577
e 72 591
e 72 593
e 72 597
e 72 668
e 72 702
e 72 709
e 72 734
e 72 825
e 72 842
e 72 843
e 72 853
e 72 896
e 72 919
e 72 935
e 73 266
e 73 287
e 73 316
e 73 319
e 73 321
e 73 347
e 73 385
e 73 431
e 73 441
e 73 497
e 73 541
e 73 546
e 73 595
e 73 627
e 73 649
e 73 695
e 73 709
e 73 715
e 73 762
e 73 834
e 73 916
e 74 318
e 74 332
e 74 420
e 74 576
e 74 769
e 74 775
e 74 840
e 74 864
e 74 879
e 75 282
e 75 283
e 75 331
e 75 342
e 75 343
e 75 401
e 75 405
e 75 478
e 75 501
e 75 511
e 75 542
e 75 545
e 75 597
e 75 684
e 75 706
e 75 734
e 75 753
e 75 781
e 75 795
e 75 798
e 75 801
e 75 810
e 75 870
e 75 875
e 75 919
e 75 930
e 75 948
e 75 970
e 75 989
e 76 263
e 76 271
e 76 314
e 76 329
e 76 336
e 76 355
e 76 368
e 76 371
e 76 390
e 76 463
e 76 467
e 76 496
e 76 504
e 76 528
e 76 530
e 76 536
e 76 626
e 76 685
e 76 704
e 76 721
e 76 784
e 76 800
e 76 812
e 76 846
e 76 863
e 76 881
e 76 984
e 77 261
e 77 304
e 77 344
e 77 413
e 77 428
e 77 478
e 77 488
e 77 494
e 77 508
e 77 520
e 77 563
e 77 585
e 77 711
e 77 738
e 77 770
e 77 801
e 77 854
e 77 875
e 77 902
e 77 918
e 77 982
e 78 327
e 78 349
e 78 365
e 78 458
e 78 674
e 78 760
e 78 768
e 78 805
e 78 823
e 78 862
e 78 874
e 78 878
e 78 921
e 78 922
e 78 955
e 78 957
e 79 261
e 79 269
e 79 310
e 79 320
e 79 384
e 79 389
e 79 412
e 79 413
e 79 444
e 79 467
e 79 501
e 79 549
e 79 623
e 79 625
e 79 639
e 79 642
e 79 655
e 79 663
e 79 678
e 79 680
e 79 802
e 79 831
e 79 853
e 79 856
e 79 864
e 79 907
e 79 912
e 79 914
e 79 986
e 80 306
e 80 411
e 80 416
e 80 425
e 80 438
e 80 516
e 80 519
e 80 535
e 80 551
e 80 568
e 80 588
e 80 593
e 80 619
e 80 620
e 80 656
e 80 680
e 80 849
e 80 878
e 80 909
e 80 927
e 80 956
e 80 972
e 81 264
e 81 306
e 81 312
e 81 314
e 81 327
e 81 328
e 81 336
e 81 365
e 81 412
e 81 427
e 81 544
e 81 590
e 81 596
e 81 652
e 81 744
e 81 783
e 81 807
e 81 839
e 81 846
e 81 886
e 81 929
e 81 976
e 81 978
e 82 256
e 82 301
e 82 326
e 82 333
e 82 354
e 82 444
e 82 503
e 82 513
e 82 553
e 82 602
e 82 689
e 82 715
e 82 730
e 82 731
e 82 743
e 82 758
e 82 781
e 82 843
e 82 869
e 82 891
e 82 912
e 82 954
e 82 980
e 82 998
e 83 275
e 83 302
e 83 379
e 83 454
e 83 470
e 83 535
e 83 544
e 83 545
e 83 641
e 83 646
e 83 720
e 83 817
e 83 825
e 83 931
e 83 937
e 83 945
e 83 966
e 84 432
e 84 444
e 84 468
e 84 492
e 84 521
e 84 572
e 84 605
e 84 616
e 84 640
e 84 654
e 84 709
e 84 767
e 84 784
e 84 794
e 84 795
e 84 835
e 84 851
e 84 863
e 84 913
e 84 956
e 84 998
e 85 251
e 85 258
e 85 274
e 85 284
e 85 292
e 85 311
e 85 321
e 85 328
e 85 373
e 85 383
e 85 393
e 85 438
e 85 489
e 85 497
e 85 563
e 85 594
e 85 686
e 85 697
e 85 716
e 85 760
e 85 797
e 85 894
e 85 919
e 85 923
e 85 928
e 85 930
e 86 257
e 86 306
e 86 345
e 86 354
e 86 371
e 86 373
e 86 400
e 86 411
e 86 418
e 86 514
e 86 525
e 86 604
e 86 619
e 86 641
e 86 646
e 86 654
e 86 670
e 86 671
e 86 756
e 86 840
e 86 842
e 86 852
e 86 910
e 86 928
e 86 943
e 86 957
e 87 267
e 87 285
e 87 317
e 87 326
e 87 351
e 87 366
e 87 412
e 87 482
e 87 497
e 87 520
e 87 613
e 87 622
e 87 628
e 87 675
e 87 692
e 87 749
e 87 750
e 87 754
e 87 772
e 87 780
e 87 834
e 87 868
e 87 919
e 87 939
e 87 967
e 87 982
e 87 983
e 88 297
e 88 335
e 88 357
e 88 402
e 88 410
e 88 420
e 88 471
e 88 581
e 88 624
e 88 710
e 88 713
e 88 732
e 88 801
e 88 820
e 88 857
e 88 889
e 88 899
e 88 985
e 89 264
e 89 290
e 89 304
e 89 316
e 89 360
e 89 364
e 89 397
e 89 468
e 89 519
e 89 553
e 89 573
e 89 618
e 89 619
e 89 702
e 89 733
e 89 830
e 89 850
e 89 873
e 89 914
e 89 920
e 89 931
e 89 936
e 89 946
e 89 948
e 89 952
e 89 959
e 89 985
e 90 264
e 90 307
e 90 321
e 90 327
e 90 332
e 90 333
e 90 368
e 90 378
e 90 454
e 90 501
e 90 504
e 90 570
e 90 584
e 90 608
e 90 635
e 90 664
e 90 769
e 90 770
e 90 823
e 90 874
e 90 879
e 90 978
e 91 298
e 91 303
e 91 312
e 91 366
e 91 392
e 91 436
e 91 438
e 91 510
e 91 537
e 91 547
e 91 590
e 91 603
e 91 627
e 91 663
e 91 743
e 91 774
e 91 785
e 91 791
e 91 799
e 91 801
e 91 812
e 91 897
e 91 959
e 92 269
e 92 299
e 92 379
e 92 401
e 92 499
e 92 542
e 92 597
e 92 621
e 92 715
e 92 736
e 92 741
e 92 775
e 92 804
e 92 996
e 93 290
e 93 293
e 93 351
e 93 473
e 93 506
e 93 546
e 93 557
e 93 563
e 93 621
e 93 630
e 93 680
e 93 703
e 93 729
e 93 733
e 93 911
e 94 265
e 94 273
e 94 407
e 94 445
e 94 504
e 94 534
e 94 541
e 94 663
e 94 697
e 94 775
e 94 945
e 94 952
e 94 966
e 94 972
e 95 299
e 95 301
e 95 318
e 95 334
e 95 427
e 95 434
e 95 463
e 95 470
e 95 553
e 95 643
e 95 689
e 95 711
e 95 730
e 95 778
e 95 830
e 95 880
e 95 905
e 95 953
e 95 956
e 95 979
e 96 254
e 96 292
e 96 297
e 96 334
e 96 439
e 96 480
e 96 540
e 96 583
e 96 662
e 96 679
e 96 750
e 96 831
e 96 842
e 96 856
e 96 955
e 96 970
e 96 997
e 97 289
e 97 290
e 97 350
e 97 384
e 97 423
e 97 434
e 97 513
e 97 520
e 97 542
e 97 610
e 97 612
e 97 621
e 97 724
e 97 753
e 97 762
e 97 763
e 97 788
e 97 821
e 97 840
e 97 920
e 98 257
e 98 278
e 98 314
e 98 328
e 98 356
e 98 405
e 98 421
e 98 429
e 98 498
e 98 509
e 98 512
e 98 538
e 98 591
e 98 603
e 98 623
e 98 638
e 98 657
e 98 700
e 98 755
e 98 770
e 98 840
e 98 858
e 98 878
e 98 921
e 98 942
e 98 948
e 98 955
e 98 963
e 98 981
e 99 263
e 99 271
e 99 313
e 99 350
e 99 372
e 99 380
e 99 383
e 99 386
e 99 429
e 99 540
e 99 543
e 99 617
e 99 649
e 99 665
e 99 683
e 99 717
e 99 727
e 99 818
e 99 981
e 99 993
e 100 255
e 100 424
e 100 509
e 100 519
e 100 529
e 100 534
e 100 561
e 100 613
e 100 621
e 100 653
e 100 743
e 100 759
e 100 787
e 100 844
e 100 877
e 100 881
e 100 939
e 100 991
e 101 285
e 101 296
e 101 316
e 101 319
e 101 327
e 101 333
e 101 337
e 101 363
e 101 371
e 101 376
e 101 383
e 101 393
e 101 399
e 101 422
e 101 453
e 101 461
e 101 465
e 101 514
e 101 534
e 101 543
e 101 576
e 101 624
e 101 681
e 101 775
e 101 844
e 101 862
e 101 892
e 101 936
e 101 948
e 102 270
e 102 275
e 102 290
e 102 303
e 102 352
e 102 384
e 102 481
e 102 517
e 102 519
e 102 565
e 102 574
e 102 655
e 102 745
e 102 759
e 102 789
e 102 807
e 102 861
e 102 866
e 102 882
e 102 978
e 102 983
e 102 998
e 103 258
e 103 354
e 103 394
e 103 421
e 103 463
e 103 518
e 103 556
e 103 598
e 103 619
e 103 651
e 103 658
e 103 804
e 103 815
e 103 818
e 103 833
e 103 848
e 103 864
e 103 881
e 103 939
e 103 963
e 103 975
e 103 980
e 103 981
e 103 982
e 103 991
e 104 269
e 104 288
e 104 318
e 104 341
e 104 375
e 104 390
e 104 394
e 104 458
e 104 475
e 104 513
e 104 565
e 104 571
e 104 584
e 104 633
e 104 756
e 104 785
e 104 837
e 104 844
e 104 891
e 104 896
e 104 907
e 104 965
e 104 987
e 105 300
e 105 317
e 105 330
e 105 399
e 105 412
e 105 457
e 105 499
e 105 507
e 105 546
e 105 582
e 105 665
e 105 692
e 105 699
e 105 707
e 105 813
e 105 815
e 105 862
e 105 925
e 105 963
e 105 992
e 106 252
e 106 357
e 106 420
e 106 461
e 106 499
e 106 561
e 106 635
e 106 723
e 106 754
e 106 794
e 106 803
e 106 911
e 106 917
e 106 919
e 106 933
e 106 948
e 106 980
e 106 998
e 107 415
e 107 462
e 107 471
e 107 472
e 107 481
e 107 506
e 107 528
e 107 536
e 107 557
e 107 561
e 107 575
e 107 577
e 107 578
e 107 609
e 107 749
e 107 809
e 107 822
e 107 851
e 107 879
e 107 928
e 107 942
e 107 974
e 107 989
e 108 286
e 108 295
e 108 340
e 108 408
e 108 478
e 108 503
e 108 518
e 108 536
e 108 619
e 108 653
e 108 668
e 108 696
e 108 728
e 108 731
e 108 791
e 108 843
e 108 855
e 108 863
e 108 866
e 108 874
e 108 890
e 108 922
e 108 925
e 109 310
e 109 411
e 109 415
e 109 440
e 109 458
e 109 520
e 109 535
e 109 589
e 109 638
e 109 708
e 109 710
e 109 844
e 109 853
e 109 938
e 109 944
e 109 976
e 110 281
e 110 346
e 110 438
e 110 442
e 110 454
e 110 561
e 110 579
e 110 691
e 110 718
e 110 741
e 110 752
e 110 781
e 110 797
e 110 840
e 110 856
e 110 869
e 110 896
e 110 903
e 111 259
e 111 266
e 111 280
e 111 288
e 111 308
e 111 318
e 111 335
e 111 367
e 111 368
e 111 383
e 111 399
e 111 410
e 111 519
e 111 541
e 111 558
e 111 584
e 111 613
e 111 651
e 111 683
e 111 726
e 111 733
e 111 761
e 111 768
e 111 783
e 111 860
e 111 883
e 111 895
e 111 928
e 111 933
e 111 962
e 112 304
e 112 372
e 112 402
e 112 474
e 112 514
e 112 535
e 112 543
e 112 553
e 112 575
e 112 595
e 112 622
e 112 623
e 112 637
e 112 644
e 112 654
e 112 657
e 112 712
e 112 725
e 112 761
e 112 826
e 112 832
e 112 935
e 112 959
e 112 960
e 112 1000
e 113 284
e 113 311
e 113 370
e 113 431
e 113 435
e 113 447
e 113 501
e 113 516
e 113 530
e 113 564
e 113 651
e 113 659
e 113 684
e 113 807
e 113 878
e 113 982
e 114 260
e 114 269
e 114 276
e 114 297
e 114 304
e 114 423
e 114 512
e 114 572
e 114 632
e 114 636
e 114 667
e 114 686
e 114 804
e 114 818
e 114 849
e 114 850
e 114 892
e 114 894
e 115 256
e 115 344
e 115 352
e 115 363
e 115 391
e 115 408
e 115 431
e 115 526
e 115 664
e 115 666
e 115 744
e 115 766
e 115 801
e 115 803
e 115 814
e 115 878
e 115 920
e 115 927
e 115 956
e 115 990
e 116 292
e 116 294
e 116 300
e 116 334
e 116 365
e 116 398
e 116 464
e 116 472
e 116 525
e 116 588
e 116 660
e 116 755
e 116 776
e 116 779
e 116 814
e 116 843
e 116 851
e 116 853
e 116 875
e 116 903
e 116 944
e 116 946
e 116 977
e 117 287
e 117 297
e 117 352
e 117 365
e 117 409
e 117 422
e 117 428
e 117 475
e 117 491
e 117 572
e 117 600
e 117 638
e 117 658
e 117 668
e 117 701
e 117 705
e 117 755
e 117 757
e 117 833
e 117 865
e 117 925
e 117 978
e 117 997
e 118 303
e 118 325
e 118 375
e 118 400
e 118 421
e 118 449
e 118 456
e 118 462
e 118 501
e 118 528
e 118 529
e 118 566
e 118 575
e 118 576
e 118 605
e 118 610
e 118 623
e 118 832
e 118 874
e 118 919
e 119 261
e 119 303
e 119 305
e 119 313
e 119 351
e 119 375
e 119 445
e 119 485
e 119 551
e 119 556
e 119 589
e 119 600
e 119 620
e 119 623
e 119 631
e 119 700
e 119 712
e 119 713
e 119 760
e 119 794
e 119 847
e 119 902
e 119 913
e 119 922
e 119 956
e 119 967
e 120 253
e 120 272
e 120 296
e 120 338
e 120 356
e 120 364
e 120 391
e 120 411
e 120 472
e 120 476
e 120 478
e 120 509
e 120 561
e 120 570
e 120 617
e 120 622
e 120 684
e 120 747
e 120 752
e 120 764
e 120 774
e 120 811
e 120 831
e 120 838
e 120 880
e 120 905
e 120 931
e 120 944
e 120 994
e 121 253
e 121 270
e 121 276
e 121 291
e 121 346
e 121 363
e 121 393
e 121 400
e 121 434
e 121 472
e 121 478
e 121 509
e 121 576
e 121 591
e 121 645
e 121 687
e 121 688
e 121 733
e 121 797
e 121 827
e 121 848
e 121 869
e 121 994
e 121 997
e 122 273
e 122 282
e 122 288
e 122 289
e 122 290
e 122 293
e 122 297
e 122 306
e 122 397
e 122 403
e 122 494
e 122 514
e 122 569
e 122 610
e 122 624
e 122 659
e 122 680
e 122 806
e 122 851
e 122 947
e 122 961
e 123 261
e 123 345
e 123 389
e 123 533
e 123 671
e 123 694
e 123 771
e 123 883
e 123 937
e 123 966
e 123 981
e 124 315
e 124 489
e 124 519
e 124 521
e 124 564
e 124 609
e 124 665
e 124 669
e 124 681
e 124 779
e 124 814
e 124 815
e 124 829
e 124 886
e 124 920
e 124 938
e 124 974
e 125 251
e 125 297
e 125 330
e 125 411
e 125 412
e 125 519
e 125 538
e 125 543
e 125 550
e 125 551
e 125 552
e 125 632
e 125 698
e 125 757
e 125 769
e 125 833
e 125 845
e 125 953
e 125 954
e 126 259
e 126 392
e 126 395
e 126 401
e 126 415
e 126 447
e 126 461
e 126 468
e 126 499
e 126 509
e 126 510
e 126 526
e 126 559
e 126 600
e 126 660
e 126 665
e 126 667
e 126 717
e 126 729
e 126 803
e 126 831
e 126 845
e 126 864
e 126 872
e 126 893
e 126 938
e 126 939
e 126 945
e 126 975
e 127 252
e 127 308
e 127 319
e 127 329
e 127 345
e 127 452
e 127 453
e 127 518
e 127 561
e 127 586
e 127 740
e 127 770
e 127 775
e 127 853
e 127 868
e 127 874
e 127 931
e 127 981
e 127 1000
e 128 308
e 128 320
e 128 353
e 128 359
e 128 376
e 128 418
e 128 437
e 128 470
e 128 602
e 128 606
e 128 708
e 128 732
e 128 741
e 128 813
e 128 823
e 128 838
e 128 854
e 128 882
e 128 919
e 128 923
e 128 951
e 128 985
e 128 994
e 129 259
e 129 266
e 129 387
e 129 460
e 129 472
e 129 483
e 129 500
e 129 534
e 129 542
e 129 615
e 129 699
e 129 705
e 129 726
e 129 735
e 129 740
e 129 848
e 129 849
e 129 887
e 129 896
e 129 900
e 129 904
e 129 916
e 129 931
e 129 944
e 129 946
e 129 975
e 129 977
e 130 296
e 130 309
e 130 359
e 130 382
e 130 388
e 130 392
e 130 472
e 130 498
e 130 504
e 130 572
e 130 574
e 130 602
e 130 629
e 130 669
e 130 719
e 130 745
e 130 762
e 130 767
e 130 782
e 130 939
e 130 986
e 131 307
e 131 316
e 131 318
e 131 360
e 131 469
e 131 506
e 131 513
e 131 542
e 131 577
e 131 579
e 131 603
e 131 608
e 131 612
e 131 616
e 131 623
e 131 649
e 131 733
e 131 736
e 131 793
e 131 868
e 131 900
e 131 932
e 131 965
e 131 993
e 132 296
e 132 316
e 132 322
e 132 328
e 132 404
e 132 575
e 132 600
e 132 614
e 132 708
e 132 751
e 132 801
e 132 846
e 132 856
e 132 872
e 132 913
e 132 923
e 133 261
e 133 291
e 133 344
e 133 358
e 133 389
e 133 394
e 133 420
e 133 486
e 133 499
e 133 503
e 133 528
e 133 534
e 133 611
e 133 625
e 133 701
e 133 735
e 133 746
e 133 762
e 133 833
e 133 860
e 133 886
e 133 919
e 133 938
e 133 945
e 134 300
e 134 361
e 134 364
e 134 435
e 134 452
e 134 512
e 134 548
e 134 589
e 134 592
e 134 598
e 134 680
e 134 731
e 134 761
e 134 771
e 134 836
e 134 861
e 134 863
e 134 876
e 134 884
e 134 932
e 134 984
e 134 987
e 135 253
e 135 267
e 135 274
e 135 275
e 135 279
e 135 327
e 135 354
e 135 472
e 135 507
e 135 555
e 135 560
e 135 633
e 135 637
e 135 740
e 135 757
e 135 798
e 135 811
e 135 835
e 135 852
e 135 943
e 136 278
e 136 295
e 136 298
e 136 319
e 136 358
e 136 404
e 136 425
e 136 430
e 136 479
e 136 487
e 136 504
e 136 529
e 136 534
e 136 569
e 136 586
e 136 609
e 136 619
e 136 747
e 136 774
e 136 799
e 136 838
e 136 862
e 136 905
e 136 956
e 137 252
e 137 261
e 137 333
e 137 370
e 137 406
e 137 436
e 137 451
e 137 457
e 137 482
e 137 584
e 137 602
e 137 656
e 137 744
e 137 752
e 137 815
e 137 838
e 137 876
e 137 930
e 137 988
e 138 305
e 138 349
e 138 375
e 138 385
e 138 416
e 138 525
e 138 538
e 138 546
e 138 589
e 138 609
e 138 631
e 138 720
e 138 769
e 138 781
e 138 796
e 138 811
e 138 818
e 138 819
e 138 821
e 138 863
e 138 896
e 138 942
e 138 988
e 138 993
e 139 260
e 139 272
e 139 299
e 139 313
e 139 348
e 139 393
e 139 445
e 139 446
e 139 536
e 139 590
e 139 618
e 139 634
e 139 642
e 139 653
e 139 696
e 139 699
e 139 785
e 139 837
e 139 842
e 139 880
e 139 886
e 139 888
e 139 903
e 139 938
e 139 942
e 139 967
e 140 256
e 140 345
e 140 382
e 140 502
e 140 513
e 140 520
e 140 522
e 140 549
e 140 584
e 140 636
e 140 639
e 140 661
e 140 717
e 140 736
e 140 757
e 140 818
e 140 854
e 140 883
e 140 885
e 140 895
e 140 949
e 140 981
e 141 302
e 141 309
e 141 373
e 141 405
e 141 424
e 141 435
e 141 522
e 141 578
e 141 601
e 141 731
e 141 777
e 141 839
e 141 850
e 141 860
e 141 865
e 141 868
e 141 893
e 141 937
e 141 996
e 142 276
e 142 315
e 142 330
e 142 388
e 142 411
e 142 427
e 142 445
e 142 482
e 142 563
e 142 582
e 142 598
e 142 661
e 142 718
e 142 735
e 142 748
e 142 753
e 142 841
e 142 851
e 142 853
e 142 927
e 142 933
e 142 944
e 142 978
e 142 986
e 143 260
e 143 263
e 143 267
e 143 288
e 143 367
e 143 402
e 143 436
e 143 516
e 143 527
e 143 550
e 143 599
e 143 664
e 143 724
e 143 733
e 143 738
e 143 742
e 143 779
e 143 824
e 143 856
e 143 857
e 143 902
e 143 917
e 144 270
e 144 320
e 144 328
e 144 341
e 144 349
e 144 371
e 144 586
e 144 635
e 144 649
e 144 750
e 144 772
e 144 800
e 144 813
e 144 895
e 144 921
e 144 924
e 144 929
e 144 955
e 144 960
e 145 260
e 145 288
e 145 325
e 145 365
e 145 395
e 145 402
e 145 457
e 145 461
e 145 488
e 145 502
e 145 532
e 145 536
e 145 557
e 145 563
e 145 568
e 145 569
e 145 639
e 145 695
e 145 733
e 145 744
e 145 757
e 145 786
e 145 833
e 145 836
e 145 871
e 145 892
e 145 939
e 145 946
e 145 958
e 145 959
e 145 981
e 146 272
e 146 282
e 146 369
e 146 379
e 146 415
e 146 424
e 146 473
e 146 503
e 146 507
e 146 520
e 146 539
e 146 612
e 146 635
e 146 657
e 146 690
e 146 729
e 146 748
e 146 770
e 146 773
e 146 797
e 146 831
e 146 882
e 146 887
e 146 917
e 146 949
e 146 978
e 147 265
e 147 297
e 147 359
e 147 367
e 147 368
e 147 392
e 147 424
e 147 448
e 147 465
e 147 555
e 147 556
e 147 564
e 147 568
e 147 571
e 147 701
e 147 744
e 147 761
e 147 779
e 147 806
e 147 826
e 147 857
e 147 908
e 147 918
e 147 972
e 148 252
e 148 273
e 148 322
e 148 345
e 148 370
e 148 382
e 148 384
e 148 391
e 148 415
e 148 416
e 148 419
e 148 442
e 148 478
e 148 480
e 148 496
e 148 539
e 148 556
e 148 577
e 148 602
e 148 628
e 148 691
e 148 707
e 148 730
e 148 747
e 148 757
e 148 851
e 148 860
e 148 875
e 148 912
e 148 938
e 148 950
e 148 969
e 148 975
e 148 979
e 149 261
e 149 271
e 149 340
e 149 349
e 149 370
e 149 408
e 149 446
e 149 486
e 149 498
e 149 527
e 149 529
e 149 539
e 149 561
e 149 566
e 149 580
e 149 605
e 149 614
e 149 640
e 149 660
e 149 662
e 149 731
e 149 768
e 149 865
e 149 922
e 149 980
e 150 252
e 150 294
e 150 339
e 150 349
e 150 359
e 150 444
e 150 476
e 150 486
e 150 777
e 150 784
e 150 825
e 150 855
e 150 882
e 150 944
e 150 963
e 150 970
e 150 973
e 150 975
e 150 980
e 151 353
e 151 403
e 151 424
e 151 434
e 151 543
e 151 604
e 151 629
e 151 637
e 151 707
e 151 731
e 151 754
e 151 775
e 151 798
e 151 814
e 151 815
e 151 823
e 151 852
e 151 919
e 151 935
e 151 949
e 151 992
e 151 993
e 152 317
e 152 324
e 152 325
e 152 366
e 152 373
e 152 422
e 152 437
e 152 441
e 152 447
e 152 457
e 152 491
e 152 517
e 152 527
e 152 547
e 152 548
e 152 592
e 152 599
e 152 704
e 152 707
e 152 745
e 152 755
e 152 775
e 152 776
e 152 791
e 152 898
e 152 906
e 152 929
e 152 946
e 152 963
e 153 351
e 153 362
e 153 368
e 153 417
e 153 470
e 153 544
e 153 668
e 153 879
e 153 892
e 153 921
e 153 923
e 153 949
e 153 962
e 153 974
e 153 978
e 154 263
e 154 302
e 154 355
e 154 358
e 154 377
e 154 509
e 154 529
e 154 540
e 154 590
e 154 695
e 154 716
e 154 736
e 154 784
e 154 788
e 154 790
e 154 808
e 154 845
e 154 942
e 154 960
e 154 973
e 155 293
e 155 327
e 155 333
e 155 339
e 155 366
e 155 430
e 155 469
e 155 502
e 155 516
e 155 541
e 155 591
e 155 625
e 155 702
e 155 704
e 155 716
e 155 771
e 155 795
e 155 817
e 155 946
e 155 951
e 155 987
e 156 252
e 156 264
e 156 309
e 156 431
e 156 437
e 156 464
e 156 519
e 156 522
e 156 525
e 156 550
e 156 551
e 156 600
e 156 618
e 156 702
e 156 814
e 156 834
e 156 886
e 156 930
e 156 990
e 157 266
e 157 310
e 157 329
e 157 344
e 157 362
e 157 383
e 157 445
e 157 446
e 157 455
e 157 519
e 157 581
e 157 586
e 157 686
e 157 772
e 157 778
e 157 798
e 157 843
e 157 862
e 157 869
e 157 891
e 157 907
e 157 914
e 157 959
e 157 978
e 157 996
e 158 399
e 158 414
e 158 442
e 158 559
e 158 567
e 158 614
e 158 651
e 158 665
e 158 680
e 158 718
e 158 720
e 158 731
e 158 767
e 158 773
e 158 789
e 158 862
e 158 866
e 158 905
e 158 914
e 158 956
e 159 308
e 159 322
e 159 364
e 159 381
e 159 408
e 159 426
e 159 453
e 159 454
e 159 455
e 159 464
e 159 484
e 159 569
e 159 582
e 159 631
e 159 633
e 159 638
e 159 673
e 159 710
e 159 724
e 159 726
e 159 764
e 159 766
e 159 774
e 159 825
e 159 878
e 159 883
e 159 900
e 159 915
e 159 923
e 159 951
e 160 376
e 160 463
e 160 478
e 160 653
e 160 684
e 160 738
e 160 766
e 160 856
e 160 878
e 160 892
e 160 894
e 160 905
e 160 922
e 160 931
e 160 944
e 160 959
e 160 963
e 160 982
e 160 983
e 160 996
e 161 305
e 161 344
e 161 352
e 161 354
e 161 361
e 161 391
e 161 415
e 161 444
e 161 448
e 161 455
e 161 474
e 161 626
e 161 677
e 161 711
e 161 750
e 161 805
e 161 814
e 161 841
e 161 850
e 161 860
e 162 265
e 162 320
e 162 335
e 162 337
e 162 344
e 162 361
e 162 549
e 162 564
e 162 565
e 162 716
e 162 845
e 162 849
e 162 925
e 162 930
e 162 951
e 163 254
e 163 264
e 163 279
e 163 297
e 163 316
e 163 318
e 163 371
e 163 373
e 163 421
e 163 457
e 163 462
e 163 473
e 163 525
e 163 536
e 163 560
e 163 562
e 163 577
e 163 855
e 163 861
e 163 900
e 163 904
e 163 912
e 164 260
e 164 313
e 164 321
e 164 384
e 164 517
e 164 566
e 164 587
e 164 666
e 164 700
e 164 713
e 164 786
e 164 838
e 164 840
e 164 866
e 164 894
e 164 905
e 165 253
e 165 261
e 165 271
e 165 330
e 165 373
e 165 377
e 165 469
e 165 534
e 165 568
e 165 572
e 165 584
e 165 607
e 165 656
e 165 700
e 165 701
e 165 709
e 165 716
e 165 732
e 165 743
e 165 751
e 165 752
e 165 763
e 165 766
e 165 799
e 165 872
e 165 978
e 166 263
e 166 278
e 166 292
e 166 319
e 166 429
e 166 440
e 166 447
e 166 470
e 166 481
e 166 507
e 166 511
e 166 526
e 166 528
e 166 593
e 166 614
e 166 622
e 166 660
e 166 832
e 166 833
e 166 909
e 166 911
e 166 915
e 166 942
e 166 948
e 166 958
e 167 307
e 167 330
e 167 331
e 167 333
e 167 360
e 167 361
e 167 371
e 167 407
e 167 425
e 167 556
e 167 610
e 167 655
e 167 846
e 167 881
e 167 911
e 167 914
e 167 928
e 167 938
e 167 944
e 167 993
e 168 276
e 168 395
e 168 470
e 168 474
e 168 524
e 168 584
e 168 604
e 168 635
e 168 644
e 168 686
e 168 733
e 168 788
e 168 836
e 168 840
e 168 865
e 168 866
e 168 893
e 168 965
e 168 999
e 169 313
e 169 318
e 169 398
e 169 400
e 169 448
e 169 485
e 169 563
e 169 575
e 169 584
e 169 591
e 169 606
e 169 701
e 169 702
e 169 751
e 169 761
e 169 765
e 169 787
e 169 790
e 169 836
e 169 898
e 169 916
e 169 966
e 169 984
e 170 259
e 170 263
e 170 280
e 170 343
e 170 345
e 170 369
e 170 379
e 170 393
e 170 429
e 170 437
e 170 478
e 170 495
e 170 503
e 170 504
e 170 524
e 170 601
e 170 605
e 170 663
e 170 669
e 170 672
e 170 704
e 170 730
e 170 829
e 170 832
e 170 855
e 170 859
e 170 875
e 170 936
e 170 945
e 170 960
e 170 969
e 171 338
e 171 413
e 171 414
e 171 445
e 171 472
e 171 579
e 171 581
e 171 658
e 171 720
e 171 756
e 171 855
e 171 879
e 171 910
e 171 927
e 171 978
e 171 993
e 172 257
e 172 277
e 172 381
e 172 422
e 172 539
e 172 573
e 172 581
e 172 583
e 172 644
e 172 784
e 172 809
e 172 818
e 172 821
e 172 830
e 172 862
e 172 912
e 172 959
e 172 972
e 172 989
e 172 996
e 173 294
e 173 313
e 173 328
e 173 375
e 173 393
e 173 453
e 173 547
e 173 600
e 173 636
e 173 639
e 173 647
e 173 658
e 173 665
e 173 844
e 173 851
e 173 866
e 173 901
e 173 946
e 173 970
e 174 255
e 174 298
e 174 370
e 174 458
e 174 462
e 174 490
e 174 524
e 174 543
e 174 609
e 174 647
e 174 656
e 174 681
e 174 697
e 174 700
e 174 724
e 174 758
e 174 937
e 174 975
e 175 270
e 175 323
e 175 328
e 175 388
e 175 419
e 175 431
e 175 439
e 175 483
e 175 562
e 175 589
e 175 620
e 175 673
e 175 885
e 175 891
e 175 906
e 175 915
e 175 916
e 176 286
e 176 297
e 176 482
e 176 534
e 176 561
e 176 563
e 176 565
e 176 566
e 176 574
e 176 603
e 176 621
e 176 678
e 176 685
e 176 694
e 176 749
e 176 788
e 176 792
e 176 800
e 176 843
e 176 850
e 176 889
e 176 938
e 177 277
e 177 333
e 177 344
e 177 351
e 177 352
e 177 355
e 177 376
e 177 424
e 177 426
e 177 473
e 177 481
e 177 574
e 177 594
e 177 611
e 177 613
e 177 624
e 177 636
e 177 641
e 177 652
e 177 660
e 177 739
e 177 769
e 177 843
e 177 881
e 177 892
e 177 909
e 177 925
e 177 928
e 177 929
e 177 931
e 177 938
e 177 994
e 178 323
e 178 332
e 178 335
e 178 367
e 178 389
e 178 395
e 178 411
e 178 425
e 178 450
e 178 465
e 178 496
e 178 518
e 178 539
e 178 566
e 178 640
e 178 650
e 178 682
e 178 694
e 178 739
e 178 760
e 178 761
e 178 801
e 178 803
e 178 829
e 178 861
e 178 959
e 178 965
e 178 971
e 179 254
e 179 262
e 179 412
e 179 561
e 179 573
e 179 580
e 179 599
e 179 626
e 179 649
e 179 767
e 179 853
e 179 857
e 179 871
e 179 883
e 179 895
e 179 929
e 180 327
e 180 359
e 180 360
e 180 382
e 180 396
e 180 403
e 180 429
e 180 503
e 180 516
e 180 556
e 180 581
e 180 637
e 180 647
e 180 681
e 180 748
e 180 750
e 180 762
e 180 791
e 180 811
e 180 830
e 180 839
e 180 848
e 180 870
e 180 872
e 180 885
e 180 896
e 180 974
e 180 979
e 181 260
e 181 262
e 181 332
e 181 361
e 181 383
e 181 415
e 181 421
e 181 426
e 181 469
e 181 487
e 181 519
e 181 585
e 181 597
e 181 605
e 181 637
e 181 649
e 181 690
e 181 694
e 181 743
e 181 873
e 181 908
e 181 976
e 182 299
e 182 313
e 182 322
e 182 349
e 182 353
e 182 357
e 182 384
e 182 395
e 182 419
e 182 423
e 182 428
e 182 439
e 182 487
e 182 494
e 182 497
e 182 499
e 182 603
e 182 627
e 182 657
e 182 760
e 182 765
e 182 933
e 182 934
e 182 959
e 182 982
e 183 254
e 183 324
e 183 376
e 183 389
e 183 519
e 183 531
e 183 546
e 183 550
e 183 575
e 183 577
e 183 691
e 183 704
e 183 724
e 183 746
e 183 762
e 183 992
e 184 254
e 184 280
e 184 309
e 184 325
e 184 331
e 184 403
e 184 406
e 184 501
e 184 566
e 184 587
e 184 718
e 184 799
e 184 809
e 184 845
e 184 852
e 184 860
e 184 862
e 184 883
e 184 886
e 184 890
e 184 954
e 184 972
e 185 260
e 185 301
e 185 313
e 185 332
e 185 355
e 185 359
e 185 410
e 185 450
e 185 468
e 185 683
e 185 708
e 185 736
e 185 782
e 185 802
e 185 808
e 185 828
e 185 830
e 185 852
e 185 869
e 185 891
e 185 912
e 185 970
e 185 981
e 185 993
e 186 320
e 186 340
e 186 348
e 186 368
e 186 385
e 186 411
e 186 412
e 186 469
e 186 655
e 186 694
e 186 720
e 186 732
e 186 739
e 186 750
e 186 777
e 186 785
e 186 818
e 186 847
e 186 868
e 186 887
e 186 898
e 186 968
e 187 322
e 187 340
e 187 381
e 187 382
e 187 403
e 187 421
e 187 452
e 187 475
e 187 486
e 187 495
e 187 500
e 187 524
e 187 595
e 187 612
e 187 621
e 187 632
e 187 649
e 187 654
e 187 668
e 187 682
e 187 691
e 187 696
e 187 710
e 187 711
e 187 766
e 187 837
e 187 868
e 187 909
e 187 926
e 187 964
e 187 971
e 187 976
e 187 982
e 188 280
e 188 286
e 188 291
e 188 328
e 188 439
e 188 460
e 188 478
e 188 536
e 188 563
e 188 595
e 188 734
e 188 748
e 188 777
e 188 784
e 188 800
e 188 807
e 188 814
e 188 843
e 188 880
e 188 932
e 188 983
e 189 273
e 189 330
e 189 345
e 189 346
e 189 359
e 189 369
e 189 385
e 189 433
e 189 480
e 189 488
e 189 505
e 189 526
e 189 642
e 189 666
e 189 689
e 189 707
e 189 717
e 189 746
e 189 944
e 189 948
e 189 955
e 189 958
e 189 969
e 190 269
e 190 336
e 190 373
e 190 431
e 190 472
e 190 520
e 190 529
e 190 538
e 190 548
e 190 605
e 190 623
e 190 630
e 190 653
e 190 722
e 190 735
e 190 780
e 190 796
e 190 813
e 190 829
e 190 900
e 190 932
e 190 935
e 190 992
e 191 311
e 191 382
e 191 440
e 191 478
e 191 525
e 191 549
e 191 550
e 191 593
e 191 616
e 191 624
e 191 680
e 191 702
e 191 737
e 191 782
e 191 821
e 191 846
e 191 848
e 191 850
e 191 863
e 191 873
e 191 887
e 191 924
e 191 981
e 192 267
e 192 284
e 192 296
e 192 319
e 192 341
e 192 344
e 192 445
e 192 466
e 192 481
e 192 487
e 192 505
e 192 556
e 192 563
e 192 600
e 192 638
e 192 669
e 192 671
e 192 767
e 192 775
e 192 781
e 192 790
e 192 820
e 192 884
e 192 896
e 192 911
e 192 932
e 192 937
e 192 942
e 193 252
e 193 256
e 193 328
e 193 346
e 193 373
e 193 454
e 193 558
e 193 598
e 193 604
e 193 608
e 193 610
e 193 652
e 193 684
e 193 754
e 193 779
e 193 794
e 193 821
e 193 876
e 193 897
e 193 903
e 193 958
e 193 970
e 193 982
e 193 991
e 194 276
e 194 339
e 194 376
e 194 380
e 194 396
e 194 400
e 194 455
e 194 492
e 194 546
e 194 587
e 194 610
e 194 620
e 194 631
e 194 664
e 194 709
e 194 719
e 194 772
e 194 917
e 194 935
e 194 937
e 194 940
e 194 990
e 195 293
e 195 321
e 195 330
e 195 338
e 195 343
e 195 359
e 195 412
e 195 423
e 195 426
e 195 457
e 195 459
e 195 461
e 195 485
e 195 487
e 195 491
e 195 495
e 195 628
e 195 705
e 195 715
e 195 729
e 195 760
e 195 785
e 195 828
e 195 847
e 195 848
e 195 855
e 195 857
e 195 859
e 195 866
e 195 911
e 196 258
e 196 275
e 196 278
e 196 324
e 196 331
e 196 358
e 196 399
e 196 408
e 196 449
e 196 478
e 196 585
e 196 629
e 196 648
e 196 670
e 196 815
e 196 847
e 196 879
e 196 900
e 196 901
e 196 962
e 196 975
e 196 976
e 196 988
e 196 990
e 196 994
e 197 271
e 197 301
e 197 365
e 197 370
e 197 378
e 197 382
e 197 395
e 197 401
e 197 481
e 197 514
e 197 518
e 197 543
e 197 582
e 197 653
e 197 657
e 197 659
e 197 663
e 197 690
e 197 717
e 197 718
e 197 728
e 197 780
e 197 794
e 197 804
e 197 820
e 197 902
e 197 933
e 197 940
e 197 982
e 197 997
e 198 286
e 198 287
e 198 306
e 198 336
e 198 342
e 198 441
e 198 452
e 198 492
e 198 493
e 198 506
e 198 593
e 198 605
e 198 608
e 198 643
e 198 654
e 198 656
e 198 658
e 198 673
e 198 702
e 198 736
e 198 835
e 198 857
e 198 876
e 198 889
e 198 906
e 198 951
e 198 976
e 198 990
e 199 360
e 199 378
e 199 430
e 199 473
e 199 546
e 199 599
e 199 676
e 199 704
e 199 726
e 199 766
e 199 812
e 199 834
e 199 838
e 199 848
e 199 854
e 199 859
e 199 863
e 199 889
e 199 900
e 199 910
e 199 928
e 199 938
e 200 325
e 200 345
e 200 357
e 200 409
e 200 513
e 200 545
e 200 581
e 200 630
e 200 653
e 200 671
e 200 684
e 200 685
e 200 702
e 200 824
e 200 941
e 201 266
e 201 279
e 201 295
e 201 319
e 201 332
e 201 388
e 201 406
e 201 563
e 201 625
e 201 761
e 201 785
e 201 854
e 201 881
e 201 975
e 202 309
e 202 356
e 202 433
e 202 476
e 202 507
e 202 533
e 202 552
e 202 633
e 202 681
e 202 682
e 202 706
e 202 719
e 202 756
e 202 782
e 202 875
e 202 941
e 202 972
e 202 981
e 203 259
e 203 305
e 203 335
e 203 343
e 203 406
e 203 445
e 203 619
e 203 631
e 203 636
e 203 644
e 203 645
e 203 658
e 203 661
e 203 704
e 203 732
e 203 766
e 203 786
e 203 885
e 203 985
e 204 276
e 204 329
e 204 348
e 204 417
e 204 454
e 204 526
e 204 533
e 204 637
e 204 669
e 204 715
e 204 723
e 204 731
e 204 763
e 204 767
e 204 777
e 204 788
e 204 794
e 204 842
e 204 846
e 204 913
e 205 256
e 205 336
e 205 345
e 205 365
e 205 387
e 205 409
e 205 460
e 205 523
e 205 653
e 205 657
e 205 716
e 205 718
e 205 741
e 205 770
e 205 901
e 205 958
e 205 987
e 206 340
e 206 345
e 206 440
e 206 442
e 206 455
e 206 505
e 206 510
e 206 514
e 206 597
e 206 615
e 206 634
e 206 646
e 206 648
e 206 694
e 206 728
e 206 738
e 206 840
e 206 867
e 206 891
e 206 926
e 206 999
e 207 271
e 207 277
e 207 292
e 207 293
e 207 298
e 207 304
e 207 425
e 207 451
e 207 490
e 207 496
e 207 516
e 207 562
e 207 607
e 207 619
e 207 671
e 207 737
e 207 754
e 207 779
e 207 823
e 207 837
e 207 911
e 207 918
e 207 929
e 207 941
e 207 945
e 207 959
e 207 994
e 208 259
e 208 298
e 208 357
e 208 392
e 208 404
e 208 444
e 208 451
e 208 454
e 208 484
e 208 499
e 208 552
e 208 568
e 208 616
e 208 633
e 208 644
e 208 672
e 208 787
e 208 816
e 208 817
e 208 832
e 208 842
e 208 858
e 208 923
e 208 930
e 209 276
e 209 294
e 209 338
e 209 352
e 209 362
e 209 389
e 209 484
e 209 490
e 209 535
e 209 537
e 209 628
e 209 669
e 209 702
e 209 727
e 209 734
e 209 821
e 209 849
e 209 886
e 209 899
e 209 914
e 209 944
e 209 946
e 209 957
e 209 963
e 209 974
e 209 991
e 210 266
e 210 311
e 210 442
e 210 484
e 210 524
e 210 537
e 210 538
e 210 549
e 210 566
e 210 575
e 210 618
e 210 628
e 210 630
e 210 639
e 210 662
e 210 709
e 210 858
e 210 914
e 210 937
e 210 951
e 211 263
e 211 277
e 211 343
e 211 355
e 211 412
e 211 434
e 211 438
e 211 482
e 211 490
e 211 525
e 211 540
e 211 548
e 211 551
e 211 580
e 211 586
e 211 592
e 211 674
e 211 682
e 211 690
e 211 830
e 211 945
e 211 966
e 212 260
e 212 272
e 212 284
e 212 369
e 212 376
e 212 382
e 212 387
e 212 442
e 212 578
e 212 595
e 212 697
e 212 699
e 212 748
e 212 751
e 212 752
e 212 759
e 212 772
e 212 831
e 212 838
e 212 860
e 212 894
e 212 914
e 212 940
e 212 994
e 213 349
e 213 376
e 213 385
e 213 423
e 213 484
e 213 495
e 213 591
e 213 666
e 213 703
e 213 799
e 213 814
e 213 815
e 213 825
e 213 832
e 213 862
e 213 900
e 213 979
e 213 986
e 214 299
e 214 308
e 214 328
e 214 338
e 214 344
e 214 366
e 214 409
e 214 471
e 214 551
e 214 557
e 214 575
e 214 586
e 214 689
e 214 715
e 214 729
e 214 755
e 214 760
e 214 774
e 214 778
e 214 833
e 215 252
e 215 267
e 215 361
e 215 391
e 215 426
e 215 452
e 215 465
e 215 505
e 215 535
e 215 566
e 215 579
e 215 612
e 215 645
e 215 663
e 215 680
e 215 694
e 215 763
e 215 829
e 215 866
e 216 270
e 216 291
e 216 331
e 216 348
e 216 438
e 216 449
e 216 467
e 216 491
e 216 600
e 216 624
e 216 669
e 216 754
e 216 772
e 216 773
e 216 849
e 216 915
e 216 997
e 217 270
e 217 276
e 217 303
e 217 316
e 217 326
e 217 365
e 217 373
e 217 375
e 217 418
e 217 449
e 217 494
e 217 533
e 217 565
e 217 593
e 217 633
e 217 651
e 217 667
e 217 691
e 217 722
e 217 752
e 217 839
e 217 845
e 217 910
e 217 953
e 217 990
e 218 279
e 218 294
e 218 314
e 218 315
e 218 323
e 218 329
e 218 350
e 218 353
e 218 373
e 218 400
e 218 614
e 218 618
e 218 702
e 218 725
e 218 743
e 218 744
e 218 747
e 218 831
e 218 863
e 218 903
e 218 929
e 218 935
e 218 969
e 219 319
e 219 379
e 219 382
e 219 392
e 219 403
e 219 405
e 219 510
e 219 562
e 219 566
e 219 598
e 219 605
e 219 639
e 219 668
e 219 707
e 219 753
e 219 807
e 219 861
e 219 877
e 219 894
e 219 900
e 219 953
e 219 987
e 220 286
e 220 327
e 220 366
e 220 406
e 220 517
e 220 522
e 220 524
e 220 573
e 220 587
e 220 590
e 220 607
e 220 618
e 220 659
e 220 669
e 220 672
e 220 727
e 220 767
e 220 769
e 220 810
e 220 835
e 220 858
e 220 869
e 220 957
e 220 964
e 220 974
e 220 976
e 220 993
e 220 994
e 221 257
e 221 271
e 221 309
e 221 433
e 221 453
e 221 498
e 221 546
e 221 598
e 221 600
e 221 645
e 221 659
e 221 700
e 221 751
e 221 776
e 221 812
e 221 860
e 221 930
e 221 939
e 221 957
e 222 251
e 222 326
e 222 327
e 222 479
e 222 508
e 222 625
e 222 632
e 222 663
e 222 664
e 222 667
e 222 692
e 222 729
e 222 749
e 222 791
e 222 811
e 222 815
e 222 824
e 222 879
e 222 931
e 222 967
e 222 968
e 222 971
e 223 259
e 223 396
e 223 411
e 223 438
e 223 464
e 223 618
e 223 650
e 223 675
e 223 694
e 223 717
e 223 720
e 223 745
e 223 749
e 223 769
e 223 779
e 223 797
e 223 871
e 223 931
e 223 963
e 223 972
e 224 275
e 224 337
e 224 381
e 224 405
e 224 435
e 224 488
e 224 497
e 224 562
e 224 617
e 224 623
e 224 661
e 224 772
e 224 808
e 224 833
e 224 852
e 224 870
e 224 871
e 224 886
e 224 887
e 224 923
e 224 981
e 224 985
e 225 303
e 225 308
e 225 311
e 225 412
e 225 423
e 225 424
e 225 439
e 225 452
e 225 459
e 225 481
e 225 535
e 225 539
e 225 592
e 225 611
e 225 635
e 225 658
e 225 675
e 225 719
e 225 754
e 225 826
e 225 831
e 225 933
e 225 959
e 225 968
e 225 980
e 226 286
e 226 295
e 226 323
e 226 379
e 226 399
e 226 433
e 226 445
e 226 460
e 226 501
e 226 608
e 226 634
e 226 641
e 226 680
e 226 696
e 226 717
e 226 752
e 226 833
e 226 835
e 226 843
e 226 866
e 226 915
e 226 929
e 226 933
e 226 938
e 226 996
e 227 285
e 227 409
e 227 440
e 227 469
e 227 494
e 227 514
e 227 579
e 227 592
e 227 643
e 227 820
e 227 849
e 227 888
e 227 936
e 227 979
e 227 989
e 228 295
e 228 320
e 228 343
e 228 403
e 228 419
e 228 426
e 228 504
e 228 507
e 228 511
e 228 525
e 228 592
e 228 669
e 228 677
e 228 679
e 228 730
e 228 745
e 228 787
e 228 800
e 228 822
e 228 858
e 228 860
e 228 874
e 228 889
e 228 983
e 229 281
e 229 325
e 229 329
e 229 363
e 229 388
e 229 537
e 229 553
e 229 566
e 229 602
e 229 632
e 229 663
e 229 723
e 229 793
e 229 794
e 229 803
e 229 901
e 229 914
e 229 924
e 229 974
e 230 280
e 230 333
e 230 450
e 230 475
e 230 485
e 230 558
e 230 593
e 230 612
e 230 753
e 230 809
e 230 831
e 230 847
e 230 940
e 230 969
e 230 972
e 230 982
e 231 308
e 231 312
e 231 322
e 231 456
e 231 563
e 231 595
e 231 602
e 231 638
e 231 644
e 231 659
e 231 663
e 231 710
e 231 713
e 231 806
e 231 807
e 231 856
e 231 891
e 231 923
e 231 939
e 231 985
e 232 296
e 232 297
e 232 367
e 232 408
e 232 425
e 232 465
e 232 486
e 232 543
e 232 749
e 232 769
e 232 790
e 232 836
e 232 899
e 232 905
e 232 921
e 232 949
e 232 987
e 233 320
e 233 393
e 233 407
e 233 463
e 233 491
e 233 516
e 233 574
e 233 668
e 233 693
e 233 706
e 233 778
e 233 810
e 233 892
e 233 915
e 233 932
e 234 264
e 234 287
e 234 298
e 234 377
e 234 390
e 234 392
e 234 412
e 234 423
e 234 457
e 234 535
e 234 590
e 234 711
e 234 717
e 234 720
e 234 746
e 234 774
e 234 777
e 234 781
e 234 811
e 234 819
e 234 869
e 234 870
e 234 877
e 234 920
e 234 931
e 235 269
e 235 283
e 235 395
e 235 485
e 235 491
e 235 553
e 235 570
e 235 602
e 235 705
e 235 743
e 235 773
e 235 775
e 235 803
e 235 862
e 235 902
e 235 958
e 235 989
e 236 268
e 236 312
e 236 338
e 236 362
e 236 371
e 236 392
e 236 450
e 236 561
e 236 605
e 236 639
e 236 651
e 236 795
e 236 825
e 236 831
e 236 833
e 236 849
e 236 855
e 236 903
e 236 931
e 236 947
e 237 356
e 237 383
e 237 424
e 237 459
e 237 460
e 237 462
e 237 542
e 237 602
e 237 638
e 237 643
e 237 676
e 237 715
e 237 744
e 237 745
e 237 748
e 237 789
e 237 878
e 237 883
e 237 887
e 237 892
e 237 960
e 238 284
e 238 314
e 238 322
e 238 338
e 238 385
e 238 416
e 238 426
e 238 432
e 238 444
e 238 492
e 238 514
e 238 538
e 238 552
e 238 602
e 238 631
e 238 635
e 238 652
e 238 676
e 238 719
e 238 774
e 238 793
e 238 809
e 238 841
e 238 931
e 238 996
e 239 273
e 239 281
e 239 283
e 239 396
e 239 431
e 239 519
e 239 544
e 239 614
e 239 638
e 239 660
e 239 780
e 239 793
e 239 840
e 239 882
e 239 957
e 240 257
e 240 374
e 240 433
e 240 440
e 240 467
e 240 533
e 240 535
e 240 550
e 240 567
e 240 631
e 240 643
e 240 694
e 240 739
e 240 837
e 240 854
e 240 929
e 240 972
e 241 305
e 241 398
e 241 438
e 241 450
e 241 494
e 241 515
e 241 516
e 241 547
e 241 582
e 241 590
e 241 667
e 241 683
e 241 698
e 241 732
e 241 775
e 241 798
e 241 802
e 241 824
e 241 829
e 241 845
e 241 890
e 241 927
e 241 995
e 242 321
e 242 327
e 242 356
e 242 390
e 242 493
e 242 500
e 242 563
e 242 571
e 242 589
e 242 630
e 242 699
e 242 716
e 242 746
e 242 796
e 242 819
e 242 835
e 242 855
e 242 861
e 242 884
e 242 897
e 242 962
e 242 993
e 243 280
e 243 359
e 243 377
e 243 395
e 243 431
e 243 443
e 243 463
e 243 488
e 243 500
e 243 501
e 243 516
e 243 539
e 243 597
e 243 646
e 243 736
e 243 759
e 243 774
e 243 835
e 243 901
e 243 983
e 243 990
e 244 267
e 244 343
e 244 362
e 244 376
e 244 423
e 244 426
e 244 432
e 244 436
e 244 467
e 244 477
e 244 497
e 244 499
e 244 515
e 244 516
e 244 527
e 244 554
e 244 580
e 244 589
e 244 628
e 244 649
e 244 711
e 244 780
e 244 793
e 244 836
e 244 882
e 244 935
e 244 970
e 245 318
e 245 323
e 245 374
e 245 440
e 245 449
e 245 451
e 245 466
e 245 519
e 245 555
e 245 599
e 245 631
e 245 641
e 245 695
e 245 699
e 245 771
e 245 788
e 245 812
e 245 816
e 245 831
e 245 917
e 245 924
e 245 931
e 245 990
e 246 293
e 246 417
e 246 534
e 246 540
e 246 551
e 246 555
e 246 581
e 246 655
e 246 695
e 246 696
e 246 717
e 246 765
e 246 858
e 246 900
e 246 961
e 246 971
e 247 279
e 247 336
e 247 382
e 247 399
e 247 408
e 247 493
e 247 512
e 247 514
e 247 543
e 247 564
e 247 640
e 247 646
e 247 654
e 247 658
e 247 668
e 247 691
e 247 693
e 247 740
e 247 790
e 247 864
e 247 894
e 247 902
e 247 928
e 247 953
e 248 306
e 248 324
e 248 352
e 248 420
e 248 438
e 248 447
e 248 472
e 248 495
e 248 533
e 248 573
e 248 577
e 248 579
e 248 623
e 248 676
e 248 679
e 248 707
e 248 721
e 248 773
e 248 831
e 248 833
e 248 870
e 248 902
e 248 929
e 248 942
e 248 953
e 248 990
e 249 256
e 249 269
e 249 332
e 249 362
e 249 400
e 249 404
e 249 478
e 249 511
e 249 697
e 249 836
e 249 883
e 249 937
e 249 994
e 250 284
e 250 289
e 250 320
e 250 322
e 250 357
e 250 365
e 250 381
e 250 430
e 250 450
e 250 452
e 250 454
e 250 464
e 250 474
e 250 491
e 250 528
e 250 529
e 250 543
e 250 553
e 250 575
e 250 589
e 250 744
e 250 792
e 250 859
e 250 959
e 250 987
e 250 997
