p edge 1000 1864
e 1 444
e 1 607
e 1 690
e 1 753
e 1 905
e 1 996
e 2 257
e 2 360
e 2 410
e 2 475
e 2 617
e 2 702
e 2 961
e 3 378
e 3 457
e 3 491
e 3 571
e 3 587
e 3 739
e 3 818
e 3 873
e 3 902
e 4 335
e 4 351
e 4 454
e 4 528
e 4 671
e 4 858
e 4 870
e 4 924
e 4 966
e 5 262
e 5 388
e 5 401
e 5 532
e 5 639
e 5 778
e 5 807
e 5 892
e 6 314
e 6 482
e 6 494
e 6 565
e 6 648
e 6 910
e 6 926
e 7 277
e 7 285
e 7 328
e 7 401
e 7 632
e 7 689
e 7 755
e 7 769
e 7 811
e 7 842
e 8 276
e 8 277
e 8 386
e 8 533
e 8 576
e 8 664
e 8 785
e 8 832
e 8 981
e 9 477
e 9 510
e 9 720
e 9 956
e 9 958
e 10 255
e 10 306
e 10 379
e 10 403
e 10 573
e 10 611
e 10 938
e 11 532
e 11 578
e 11 682
e 11 758
e 11 972
e 11 981
e 12 478
e 12 486
e 12 541
e 12 594
e 12 651
e 12 735
e 12 747
e 12 823
e 12 881
e 12 885
e 13 595
e 13 617
e 13 621
e 13 836
e 13 915
e 13 981
e 14 395
e 14 642
e 14 721
e 14 767
e 14 793
e 14 889
e 14 912
e 15 345
e 15 468
e 15 477
e 15 515
e 15 777
e 15 788
e 15 815
e 15 934
e 16 289
e 16 306
e 16 515
e 16 606
e 16 696
e 16 789
e 16 794
e 16 939
e 16 988
e 17 400
e 17 411
e 17 412
e 17 577
e 17 601
e 17 632
e 17 680
e 17 749
e 17 860
e 17 950
e 17 951
e 18 277
e 18 346
e 18 555
e 18 575
e 18 670
e 18 903
e 19 502
e 19 580
e 19 762
e 19 834
e 19 855
e 20 291
e 20 340
e 20 546
e 20 666
e 20 710
e 20 971
e 21 254
e 21 327
e 21 356
e 21 439
e 21 452
e 21 544
e 21 655
e 21 663
e 21 680
e 21 868
e 21 908
e 21 965
e 22 407
e 22 450
e 22 480
e 22 529
e 22 670
e 22 754
e 22 903
e 22 966
e 23 377
e 23 452
e 23 589
e 23 613
e 23 791
e 23 822
e 24 435
e 24 690
e 24 701
e 24 704
e 24 716
e 24 829
e 24 840
e 24 900
e 24 927
e 25 264
e 25 485
e 25 530
e 25 950
e 26 333
e 26 790
e 27 308
e 27 361
e 27 620
e 27 867
e 27 900
e 28 276
e 28 369
e 28 373
e 28 532
e 28 726
e 28 750
e 28 807
e 28 827
e 28 863
e 28 901
e 29 489
e 29 537
e 29 695
e 29 740
e 29 921
e 29 933
e 29 977
e 30 271
e 30 380
e 30 445
e 30 531
e 30 568
e 30 872
e 30 890
e 30 912
e 31 314
e 31 500
e 31 687
e 31 767
e 31 895
e 31 904
e 31 912
e 31 953
e 32 273
e 32 349
e 32 479
e 32 483
e 32 504
e 32 559
e 32 609
e 32 629
e 32 743
e 32 778
e 32 818
e 32 855
e 32 879
e 32 908
e 33 331
e 33 339
e 33 406
e 33 638
e 33 856
e 33 874
e 33 968
e 33 970
e 33 986
e 34 455
e 34 503
e 34 792
e 34 915
e 34 996
e 35 269
e 35 502
e 35 521
e 35 539
e 35 586
e 35 640
e 35 645
e 35 673
e 35 815
e 35 819
e 35 845
e 35 847
e 35 939
e 36 314
e 36 456
e 36 564
e 36 604
e 36 671
e 36 787
e 36 871
e 36 932
e 36 942
e 36 985
e 36 992
e 37 270
e 37 347
e 37 382
e 37 387
e 37 458
e 37 627
e 37 629
e 37 653
e 37 677
e 37 678
e 37 688
e 37 892
e 37 990
e 38 338
e 38 361
e 38 367
e 38 404
e 38 405
e 38 477
e 38 503
e 38 530
e 38 533
e 38 566
e 38 774
e 38 808
e 38 896
e 38 993
e 39 276
e 39 307
e 39 405
e 39 456
e 39 488
e 39 602
e 39 617
e 39 823
e 40 409
e 40 452
e 40 483
e 40 575
e 40 647
e 41 636
e 41 728
e 41 763
e 41 877
e 41 893
e 41 933
e 41 936
e 42 359
e 42 419
e 42 512
e 42 536
e 42 558
e 42 567
e 42 782
e 42 929
e 43 263
e 43 304
e 43 372
e 43 570
e 43 574
e 43 611
e 43 628
e 43 645
e 43 825
e 44 425
e 44 457
e 44 479
e 44 679
e 44 735
e 44 926
e 44 952
e 45 307
e 45 552
e 45 600
e 45 616
e 45 858
e 45 911
e 46 305
e 46 406
e 46 564
e 46 596
e 46 609
e 46 613
e 46 737
e 46 959
e 47 274
e 47 386
e 47 440
e 47 459
e 47 512
e 47 750
e 47 757
e 47 985
e 48 271
e 48 290
e 48 332
e 48 722
e 48 835
e 48 896
e 49 338
e 49 433
e 49 505
e 49 547
e 49 726
e 49 775
e 49 899
e 50 478
e 50 551
e 50 606
e 50 612
e 50 639
e 50 674
e 50 726
e 50 828
e 50 831
e 50 993
e 51 378
e 51 570
e 51 897
e 51 973
e 51 986
e 52 433
e 52 457
e 52 487
e 52 665
e 52 734
e 52 932
e 52 976
e 53 338
e 53 388
e 53 594
e 53 677
e 53 753
e 53 897
e 53 923
e 53 924
e 54 282
e 54 415
e 54 542
e 54 553
e 54 574
e 54 630
e 54 697
e 54 767
e 54 788
e 54 980
e 55 292
e 55 376
e 55 438
e 55 675
e 55 713
e 55 723
e 55 750
e 55 828
e 56 267
e 56 572
e 56 684
e 56 687
e 56 786
e 56 904
e 56 963
e 57 394
e 57 503
e 57 526
e 57 578
e 57 622
e 57 655
e 57 660
e 57 707
e 57 969
e 58 398
e 58 652
e 58 682
e 58 708
e 58 899
e 58 908
e 58 978
e 59 275
e 59 286
e 59 390
e 59 584
e 59 611
e 59 663
e 60 315
e 60 333
e 60 435
e 60 491
e 60 526
e 60 533
e 60 599
e 60 706
e 60 713
e 60 925
e 60 962
e 60 980
e 61 433
e 61 435
e 61 436
e 61 455
e 61 536
e 61 539
e 61 827
e 61 860
e 61 903
e 61 969
e 62 266
e 62 344
e 62 497
e 62 637
e 62 740
e 62 970
e 63 264
e 63 314
e 63 315
e 63 393
e 63 472
e 63 542
e 63 914
e 63 938
e 63 941
e 64 257
e 64 302
e 64 323
e 64 448
e 64 964
e 65 393
e 65 457
e 65 490
e 65 681
e 65 808
e 65 820
e 65 900
e 65 925
e 66 274
e 66 387
e 66 408
e 66 454
e 66 460
e 66 539
e 66 752
e 66 858
e 66 905
e 67 259
e 67 300
e 67 330
e 67 429
e 67 474
e 67 710
e 67 954
e 67 995
e 68 441
e 68 456
e 68 619
e 68 740
e 68 865
e 68 875
e 68 888
e 69 351
e 69 355
e 69 409
e 69 514
e 69 571
e 69 951
e 70 364
e 70 824
e 70 931
e 71 440
e 71 652
e 71 692
e 71 703
e 71 822
e 72 321
e 72 392
e 72 506
e 72 788
e 72 953
e 73 516
e 73 547
e 73 708
e 73 808
e 73 918
e 73 941
e 74 722
e 74 882
e 74 887
e 74 902
e 74 940
e 74 970
e 75 279
e 75 323
e 75 455
e 75 652
e 75 720
e 75 775
e 76 341
e 76 428
e 76 490
e 76 578
e 76 690
e 76 775
e 76 790
e 76 951
e 77 587
e 77 703
e 77 736
e 77 864
e 77 896
e 78 292
e 78 432
e 78 433
e 78 435
e 78 493
e 78 745
e 78 766
e 78 999
e 79 288
e 79 588
e 79 742
e 79 784
e 79 800
e 80 394
e 80 396
e 80 504
e 80 668
e 80 683
e 80 772
e 80 786
e 80 866
e 81 334
e 81 359
e 81 486
e 81 635
e 81 705
e 81 816
e 81 836
e 82 373
e 82 462
e 82 588
e 82 711
e 82 811
e 82 865
e 83 396
e 83 628
e 83 661
e 83 702
e 83 775
e 83 779
e 83 790
e 83 899
e 84 344
e 84 362
e 84 417
e 84 754
e 84 861
e 85 386
e 85 615
e 85 690
e 85 725
e 85 892
e 85 990
e 86 453
e 86 468
e 86 470
e 86 557
e 86 751
e 86 884
e 86 919
e 87 305
e 87 364
e 87 463
e 87 503
e 87 646
e 87 661
e 87 664
e 87 732
e 87 786
e 87 809
e 87 931
e 88 493
e 88 577
e 88 767
e 88 855
e 89 264
e 89 352
e 89 394
e 89 397
e 89 488
e 89 519
e 89 555
e 89 571
e 89 674
e 89 714
e 89 818
e 89 830
e 89 831
e 89 898
e 89 959
e 90 466
e 90 516
e 90 532
e 90 540
e 91 272
e 91 437
e 91 481
e 91 513
e 91 550
e 91 861
e 91 905
e 92 333
e 92 350
e 92 800
e 92 854
e 92 942
e 93 707
e 93 966
e 94 375
e 94 388
e 94 416
e 94 636
e 95 377
e 95 381
e 95 419
e 95 477
e 95 545
e 95 691
e 95 731
e 95 894
e 96 256
e 96 259
e 96 423
e 96 484
e 96 490
e 96 517
e 96 569
e 96 689
e 96 717
e 97 347
e 97 478
e 97 500
e 97 524
e 97 663
e 97 704
e 97 709
e 97 783
e 97 815
e 97 837
e 97 844
e 97 957
e 98 444
e 98 696
e 98 724
e 98 725
e 98 916
e 98 966
e 99 251
e 99 261
e 99 282
e 99 669
e 100 267
e 100 410
e 100 599
e 100 642
e 100 657
e 100 791
e 100 986
e 101 300
e 101 323
e 101 458
e 101 465
e 101 498
e 101 569
e 101 606
e 101 673
e 101 708
e 101 835
e 101 854
e 101 875
e 101 984
e 102 284
e 102 510
e 102 533
e 102 597
e 102 628
e 102 713
e 102 844
e 102 882
e 103 262
e 103 636
e 103 844
e 103 919
e 104 262
e 104 363
e 104 509
e 104 722
e 104 758
e 104 759
e 104 764
e 105 333
e 105 527
e 105 659
e 105 682
e 105 709
e 105 776
e 105 865
e 105 899
e 106 324
e 106 529
e 106 534
e 106 590
e 106 911
e 107 365
e 107 548
e 107 550
e 107 711
e 107 730
e 107 936
e 108 402
e 108 561
e 108 689
e 108 709
e 108 812
e 109 307
e 109 376
e 109 400
e 109 437
e 109 472
e 109 533
e 109 605
e 109 612
e 109 706
e 109 734
e 109 859
e 110 314
e 110 317
e 110 422
e 110 434
e 110 831
e 110 861
e 110 863
e 111 280
e 111 294
e 111 295
e 111 379
e 111 431
e 111 508
e 111 554
e 111 782
e 111 783
e 112 308
e 112 372
e 112 507
e 112 552
e 112 561
e 112 659
e 113 283
e 113 328
e 113 372
e 113 579
e 113 631
e 113 662
e 113 677
e 113 692
e 113 738
e 113 911
e 113 982
e 114 436
e 114 500
e 114 533
e 114 674
e 114 684
e 114 755
e 114 773
e 114 850
e 114 920
e 115 280
e 115 291
e 115 388
e 115 431
e 115 560
e 115 633
e 115 677
e 115 723
e 115 824
e 115 844
e 116 390
e 116 424
e 116 633
e 116 773
e 116 946
e 117 274
e 117 440
e 117 464
e 117 657
e 117 819
e 117 874
e 117 885
e 117 930
e 117 941
e 118 359
e 118 380
e 118 390
e 118 447
e 118 697
e 118 705
e 118 728
e 119 489
e 119 705
e 119 820
e 119 843
e 119 900
e 119 935
e 119 938
e 120 271
e 120 444
e 120 707
e 120 777
e 120 813
e 120 823
e 120 849
e 120 965
e 121 280
e 121 317
e 121 342
e 121 368
e 121 476
e 121 565
e 121 642
e 121 735
e 121 818
e 121 889
e 122 259
e 122 336
e 122 399
e 122 758
e 122 775
e 122 868
e 123 394
e 123 467
e 123 510
e 123 612
e 123 882
e 123 894
e 123 901
e 124 253
e 124 383
e 124 525
e 124 741
e 124 830
e 124 857
e 125 308
e 125 591
e 125 722
e 125 804
e 125 898
e 126 272
e 126 371
e 126 468
e 126 518
e 126 521
e 126 526
e 126 564
e 126 573
e 126 637
e 126 732
e 126 795
e 126 842
e 126 847
e 126 852
e 127 373
e 127 776
e 127 802
e 128 252
e 128 266
e 128 437
e 128 440
e 128 670
e 128 791
e 128 813
e 128 876
e 129 354
e 129 390
e 129 415
e 129 440
e 129 551
e 129 600
e 129 813
e 129 869
e 130 317
e 130 458
e 130 506
e 130 597
e 130 742
e 131 304
e 131 522
e 131 700
e 131 814
e 131 870
e 132 253
e 132 256
e 132 324
e 132 374
e 132 409
e 132 471
e 132 716
e 133 285
e 133 319
e 133 385
e 133 704
e 133 707
e 133 774
e 133 972
e 134 306
e 134 626
e 134 763
e 135 256
e 135 266
e 135 339
e 135 502
e 135 504
e 135 636
e 135 721
e 135 768
e 135 819
e 135 855
e 136 329
e 136 355
e 136 820
e 136 827
e 136 888
e 136 949
e 136 959
e 136 961
e 137 283
e 137 315
e 137 591
e 137 623
e 137 625
e 137 688
e 137 873
e 137 932
e 138 290
e 138 349
e 138 483
e 138 514
e 138 521
e 138 614
e 138 822
e 138 895
e 138 912
e 139 298
e 139 344
e 139 388
e 139 467
e 139 479
e 139 482
e 139 651
e 139 684
e 139 725
e 139 763
e 139 783
e 139 784
e 139 849
e 140 300
e 140 575
e 140 695
e 140 879
e 140 964
e 141 480
e 141 676
e 141 873
e 141 948
e 142 298
e 142 521
e 142 549
e 142 624
e 142 937
e 143 389
e 143 440
e 143 459
e 143 581
e 143 640
e 143 836
e 143 890
e 144 382
e 144 515
e 144 532
e 144 589
e 144 594
e 144 713
e 144 753
e 145 318
e 145 524
e 145 811
e 145 856
e 145 868
e 145 869
e 145 926
e 145 962
e 146 337
e 146 375
e 146 767
e 146 862
e 146 915
e 146 944
e 146 971
e 147 312
e 147 379
e 147 426
e 147 471
e 147 581
e 147 695
e 147 745
e 147 761
e 148 414
e 148 568
e 148 762
e 148 969
e 148 995
e 149 557
e 149 631
e 149 777
e 149 810
e 149 890
e 149 911
e 150 428
e 150 646
e 150 722
e 151 287
e 151 421
e 151 433
e 151 964
e 151 993
e 152 257
e 152 296
e 152 578
e 152 605
e 152 786
e 153 351
e 153 360
e 153 485
e 153 733
e 153 867
e 153 876
e 153 998
e 154 295
e 154 409
e 154 442
e 154 456
e 154 462
e 154 529
e 154 535
e 154 606
e 154 658
e 154 740
e 154 831
e 154 939
e 155 318
e 155 396
e 155 454
e 155 471
e 155 577
e 155 616
e 155 768
e 155 916
e 156 582
e 156 621
e 156 727
e 156 744
e 156 834
e 156 872
e 156 980
e 156 988
e 157 273
e 157 319
e 157 349
e 157 475
e 157 483
e 157 500
e 157 638
e 157 787
e 158 503
e 158 526
e 158 665
e 158 800
e 158 865
e 159 292
e 159 311
e 159 354
e 159 428
e 159 583
e 159 595
e 159 821
e 159 931
e 159 972
e 160 304
e 160 429
e 160 533
e 160 571
e 160 581
e 160 716
e 160 721
e 161 294
e 161 322
e 161 338
e 161 414
e 161 622
e 161 851
e 161 852
e 161 854
e 161 863
e 161 871
e 162 294
e 162 317
e 162 344
e 162 378
e 162 427
e 162 428
e 162 523
e 162 883
e 163 374
e 163 442
e 163 509
e 163 605
e 163 662
e 163 843
e 163 970
e 164 452
e 164 457
e 164 504
e 164 826
e 164 886
e 164 889
e 165 297
e 165 311
e 165 372
e 165 401
e 165 606
e 165 661
e 165 683
e 165 689
e 165 764
e 165 787
e 165 801
e 165 838
e 166 275
e 166 300
e 166 326
e 166 327
e 166 410
e 166 682
e 166 712
e 166 783
e 166 802
e 166 817
e 167 260
e 167 352
e 168 269
e 168 286
e 168 483
e 168 572
e 168 816
e 168 922
e 169 286
e 169 303
e 169 305
e 169 697
e 169 805
e 169 858
e 170 354
e 170 448
e 170 504
e 170 606
e 170 628
e 170 648
e 170 656
e 170 729
e 170 865
e 171 260
e 171 396
e 171 402
e 171 510
e 171 647
e 171 712
e 171 783
e 171 816
e 171 963
e 171 980
e 172 334
e 172 374
e 172 424
e 172 443
e 172 504
e 172 523
e 172 651
e 172 656
e 172 669
e 172 692
e 172 708
e 172 729
e 172 751
e 172 783
e 172 788
e 173 353
e 173 519
e 173 521
e 173 657
e 173 729
e 173 868
e 173 982
e 174 395
e 174 449
e 174 506
e 174 582
e 174 639
e 174 673
e 174 715
e 174 973
e 174 988
e 175 592
e 175 648
e 175 924
e 175 926
e 176 353
e 176 451
e 176 461
e 176 584
e 176 590
e 176 681
e 176 692
e 176 717
e 176 848
e 176 960
e 177 283
e 177 343
e 177 443
e 177 581
e 177 624
e 177 777
e 178 256
e 178 362
e 178 427
e 178 510
e 178 858
e 179 513
e 179 613
e 179 616
e 179 636
e 179 800
e 179 910
e 180 281
e 180 348
e 180 440
e 180 700
e 180 825
e 180 940
e 180 988
e 181 354
e 181 481
e 181 546
e 181 570
e 181 660
e 181 665
e 181 765
e 181 839
e 182 290
e 182 706
e 182 743
e 182 759
e 182 915
e 183 339
e 183 358
e 183 392
e 183 396
e 183 530
e 183 550
e 183 585
e 183 717
e 183 910
e 184 311
e 184 347
e 184 594
e 184 621
e 184 788
e 184 897
e 185 382
e 185 565
e 185 608
e 185 668
e 185 684
e 185 754
e 185 815
e 185 850
e 185 908
e 185 944
e 185 970
e 186 285
e 186 317
e 186 386
e 186 401
e 186 740
e 186 790
e 186 834
e 186 907
e 186 930
e 187 292
e 187 362
e 187 459
e 187 581
e 187 653
e 188 324
e 188 630
e 188 716
e 188 748
e 188 756
e 188 778
e 188 853
e 188 904
e 189 321
e 189 415
e 189 470
e 189 504
e 189 506
e 189 511
e 189 630
e 189 652
e 190 268
e 190 273
e 190 545
e 190 591
e 190 660
e 190 682
e 190 784
e 190 867
e 190 914
e 191 404
e 191 648
e 191 773
e 191 879
e 191 887
e 191 959
e 192 264
e 192 304
e 192 456
e 192 494
e 192 702
e 192 756
e 192 886
e 192 956
e 192 981
e 192 989
e 192 993
e 193 437
e 193 724
e 193 755
e 193 882
e 193 921
e 194 417
e 194 486
e 194 520
e 194 522
e 194 536
e 194 537
e 194 616
e 194 625
e 194 649
e 194 653
e 194 656
e 194 731
e 194 849
e 194 946
e 194 951
e 195 667
e 196 326
e 196 705
e 196 924
e 197 394
e 197 415
e 197 674
e 197 678
e 197 806
e 197 888
e 197 955
e 197 981
e 198 339
e 198 361
e 198 363
e 198 390
e 198 457
e 198 541
e 198 605
e 198 718
e 198 725
e 198 808
e 198 898
e 198 993
e 199 297
e 199 604
e 200 397
e 200 555
e 200 612
e 200 653
e 200 751
e 200 781
e 200 897
e 201 570
e 201 780
e 201 782
e 201 885
e 201 931
e 201 985
e 202 442
e 202 444
e 202 469
e 202 533
e 202 736
e 202 783
e 202 899
e 202 918
e 202 993
e 203 307
e 203 394
e 203 404
e 203 585
e 203 767
e 203 814
e 204 342
e 204 373
e 204 917
e 205 523
e 205 616
e 205 641
e 205 774
e 205 853
e 205 922
e 205 933
e 205 977
e 206 269
e 206 299
e 206 429
e 206 443
e 206 610
e 206 632
e 206 825
e 207 314
e 207 353
e 207 362
e 207 550
e 207 632
e 207 736
e 208 477
e 208 505
e 208 624
e 208 720
e 208 739
e 208 766
e 208 963
e 208 970
e 209 350
e 209 356
e 209 455
e 209 488
e 209 602
e 209 792
e 209 797
e 209 832
e 210 268
e 210 278
e 210 304
e 210 335
e 210 344
e 210 369
e 210 377
e 210 393
e 210 408
e 210 459
e 210 610
e 210 651
e 210 863
e 211 388
e 211 439
e 211 578
e 211 623
e 211 835
e 212 252
e 212 383
e 212 539
e 212 675
e 212 704
e 212 730
e 212 889
e 213 288
e 213 396
e 213 473
e 213 501
e 213 544
e 213 577
e 213 664
e 213 729
e 213 884
e 213 968
e 213 990
e 214 659
e 214 692
e 214 766
e 214 785
e 214 944
e 214 966
e 215 263
e 215 420
e 215 498
e 215 862
e 216 375
e 216 489
e 216 513
e 216 573
e 216 746
e 216 766
e 216 855
e 216 876
e 216 963
e 216 972
e 217 282
e 217 319
e 217 597
e 217 810
e 217 811
e 217 830
e 217 883
e 218 344
e 218 554
e 218 783
e 218 839
e 218 868
e 218 887
e 218 930
e 219 403
e 219 606
e 219 680
e 219 760
e 219 809
e 219 876
e 219 908
e 219 943
e 220 305
e 220 387
e 220 663
e 220 690
e 220 747
e 220 796
e 220 827
e 220 963
e 220 975
e 221 353
e 221 415
e 221 496
e 221 582
e 221 591
e 221 601
e 221 695
e 221 706
e 221 751
e 221 897
e 221 919
e 222 279
e 222 394
e 222 566
e 222 645
e 222 768
e 222 771
e 222 995
e 223 323
e 223 615
e 223 618
e 223 764
e 223 784
e 223 860
e 224 426
e 224 691
e 224 710
e 224 758
e 224 868
e 224 925
e 225 273
e 225 336
e 225 543
e 225 548
e 225 704
e 225 836
e 225 906
e 225 959
e 226 684
e 226 891
e 226 913
e 227 374
e 227 419
e 227 458
e 227 544
e 227 566
e 227 659
e 227 706
e 227 849
e 227 961
e 228 313
e 228 328
e 228 466
e 228 598
e 228 626
e 228 828
e 228 953
e 228 962
e 229 272
e 229 319
e 229 444
e 229 747
e 229 833
e 230 259
e 230 323
e 230 395
e 230 477
e 230 541
e 230 582
e 230 636
e 230 657
e 230 667
e 230 676
e 230 740
e 230 821
e 230 842
e 230 853
e 230 866
e 231 257
e 231 278
e 231 279
e 231 332
e 231 541
e 231 547
e 231 611
e 231 655
e 231 687
e 231 812
e 231 907
e 232 408
e 232 986
e 233 459
e 233 469
e 233 523
e 233 537
e 233 596
e 233 833
e 234 281
e 234 372
e 234 408
e 234 419
e 234 701
e 234 832
e 234 857
e 234 900
e 234 904
e 235 287
e 235 379
e 235 483
e 235 494
e 235 517
e 235 771
e 235 815
e 235 911
e 235 920
e 235 923
e 235 978
e 236 370
e 236 374
e 236 429
e 236 462
e 236 577
e 236 680
e 236 747
e 236 768
e 236 784
e 236 855
e 237 285
e 237 845
e 238 276
e 238 359
e 238 382
e 238 389
e 238 518
e 238 759
e 239 274
e 239 393
e 239 434
e 239 436
e 239 471
e 239 484
e 239 513
e 239 620
e 239 674
e 239 824
e 239 827
e 239 838
e 239 886
e 240 263
e 240 369
e 240 403
e 240 562
e 240 595
e 240 719
e 240 808
e 240 835
e 240 904
e 241 556
e 241 566
e 241 608
e 241 903
e 241 960
e 242 285
e 242 339
e 242 572
e 242 634
e 242 702
e 242 796
e 242 807
e 242 844
e 242 974
e 242 994
e 243 390
e 243 515
e 243 544
e 243 563
e 243 671
e 243 747
e 243 837
e 243 916
e 244 256
e 244 762
e 244 763
e 244 975
e 245 317
e 245 365
e 245 394
e 245 499
e 245 521
e 245 591
e 245 630
e 245 1000
e 246 329
e 246 334
e 246 446
e 246 479
e 246 486
e 246 488
e 246 769
e 247 263
e 247 350
e 247 366
e 247 373
e 247 388
e 247 464
e 247 639
e 247 709
e 247 802
e 247 937
e 248 456
e 248 490
e 248 545
e 248 606
e 248 834
e 248 869
e 248 890
e 248 917
e 249 640
e 249 788
e 249 811
e 249 813
e 249 863
e 249 991
e 250 432
e 250 448
e 250 626
e 250 814
e 250 815
e 250 979
e 250 997
