p edge 1000 5674
e 1 318
e 1 328
e 1 355
e 1 465
e 1 484
e 1 567
e 1 569
e 1 619
e 1 680
e 1 682
e 1 721
e 1 728
e 1 740
e 1 833
e 1 852
e 1 886
e 1 897
e 1 988
e 1 999
e 2 261
e 2 343
e 2 350
e 2 364
e 2 380
e 2 434
e 2 444
e 2 473
e 2 490
e 2 547
e 2 549
e 2 559
e 2 606
e 2 708
e 2 721
e 2 756
e 2 869
e 2 904
e 3 269
e 3 295
e 3 296
e 3 319
e 3 402
e 3 414
e 3 496
e 3 580
e 3 595
e 3 643
e 3 654
e 3 673
e 3 699
e 3 706
e 3 707
e 3 728
e 3 812
e 4 260
e 4 265
e 4 317
e 4 415
e 4 476
e 4 519
e 4 520
e 4 524
e 4 567
e 4 579
e 4 656
e 4 678
e 4 703
e 4 713
e 4 724
e 4 728
e 4 811
e 4 815
e 4 824
e 4 864
e 4 876
e 4 899
e 4 909
e 5 268
e 5 269
e 5 278
e 5 381
e 5 389
e 5 392
e 5 407
e 5 410
e 5 428
e 5 532
e 5 569
e 5 601
e 5 604
e 5 724
e 5 749
e 5 935
e 5 972
e 6 304
e 6 312
e 6 464
e 6 467
e 6 496
e 6 549
e 6 558
e 6 576
e 6 579
e 6 623
e 6 635
e 6 648
e 6 663
e 6 684
e 6 709
e 6 720
e 6 726
e 6 737
e 6 740
e 6 746
e 6 748
e 6 791
e 6 831
e 6 835
e 6 841
e 6 844
e 6 910
e 6 912
e 6 922
e 6 924
e 6 936
e 6 954
e 6 980
e 6 984
e 6 985
e 7 263
e 7 275
e 7 305
e 7 324
e 7 370
e 7 429
e 7 435
e 7 459
e 7 480
e 7 486
e 7 555
e 7 579
e 7 629
e 7 710
e 7 772
e 7 803
e 7 813
e 7 821
e 7 831
e 7 886
e 7 897
e 7 917
e 7 929
e 7 948
e 8 255
e 8 278
e 8 288
e 8 310
e 8 351
e 8 352
e 8 359
e 8 391
e 8 479
e 8 512
e 8 547
e 8 570
e 8 580
e 8 627
e 8 641
e 8 645
e 8 665
e 8 669
e 8 675
e 8 690
e 8 693
e 8 699
e 8 701
e 8 747
e 8 804
e 8 805
e 8 845
e 8 879
e 8 907
e 8 935
e 8 968
e 9 252
e 9 310
e 9 316
e 9 326
e 9 329
e 9 446
e 9 464
e 9 574
e 9 592
e 9 596
e 9 603
e 9 682
e 9 690
e 9 691
e 9 796
e 9 835
e 9 843
e 9 873
e 9 887
e 9 888
e 9 925
e 9 930
e 9 936
e 9 968
e 9 992
e 10 305
e 10 344
e 10 389
e 10 417
e 10 418
e 10 474
e 10 543
e 10 606
e 10 646
e 10 680
e 10 705
e 10 729
e 10 739
e 10 802
e 10 803
e 10 875
e 10 890
e 10 906
e 10 955
e 10 966
e 11 319
e 11 344
e 11 402
e 11 406
e 11 445
e 11 481
e 11 488
e 11 580
e 11 604
e 11 615
e 11 660
e 11 670
e 11 711
e 11 753
e 11 755
e 11 842
e 11 849
e 11 857
e 11 879
e 11 890
e 12 375
e 12 539
e 12 611
e 12 667
e 12 690
e 12 768
e 12 780
e 12 783
e 12 788
e 12 801
e 12 806
e 12 813
e 12 844
e 12 900
e 12 937
e 12 946
e 12 969
e 12 970
e 13 326
e 13 334
e 13 347
e 13 362
e 13 424
e 13 441
e 13 460
e 13 478
e 13 491
e 13 515
e 13 611
e 13 703
e 13 707
e 13 712
e 13 734
e 13 737
e 13 795
e 13 833
e 13 834
e 13 863
e 13 879
e 13 895
e 13 899
e 13 944
e 13 953
e 13 976
e 13 1000
e 14 293
e 14 333
e 14 346
e 14 457
e 14 460
e 14 496
e 14 537
e 14 578
e 14 594
e 14 634
e 14 651
e 14 664
e 14 713
e 14 714
e 14 722
e 14 767
e 14 811
e 14 829
e 14 833
e 14 849
e 14 852
e 14 877
e 14 891
e 14 961
e 14 963
e 14 971
e 14 983
e 15 254
e 15 261
e 15 282
e 15 351
e 15 357
e 15 371
e 15 409
e 15 446
e 15 464
e 15 471
e 15 518
e 15 554
e 15 584
e 15 597
e 15 618
e 15 631
e 15 652
e 15 694
e 15 741
e 15 778
e 15 785
e 15 856
e 15 859
e 15 910
e 15 917
e 15 934
e 15 959
e 15 985
e 15 993
e 16 284
e 16 372
e 16 380
e 16 540
e 16 551
e 16 700
e 16 704
e 16 770
e 16 821
e 16 825
e 16 826
e 16 878
e 16 879
e 16 892
e 16 912
e 16 957
e 16 965
e 16 989
e 17 272
e 17 292
e 17 312
e 17 349
e 17 383
e 17 421
e 17 454
e 17 497
e 17 538
e 17 620
e 17 647
e 17 662
e 17 727
e 17 743
e 17 744
e 17 746
e 17 767
e 17 779
e 17 790
e 17 802
e 17 812
e 17 814
e 17 904
e 17 922
e 17 973
e 17 980
e 18 290
e 18 299
e 18 319
e 18 321
e 18 334
e 18 362
e 18 387
e 18 389
e 18 408
e 18 439
e 18 473
e 18 476
e 18 488
e 18 505
e 18 506
e 18 548
e 18 613
e 18 684
e 18 821
e 18 829
e 18 860
e 18 869
e 18 879
e 18 889
e 18 937
e 19 272
e 19 293
e 19 309
e 19 329
e 19 358
e 19 401
e 19 480
e 19 525
e 19 562
e 19 571
e 19 583
e 19 652
e 19 657
e 19 662
e 19 706
e 19 752
e 19 798
e 19 898
e 19 919
e 20 257
e 20 286
e 20 343
e 20 353
e 20 354
e 20 383
e 20 455
e 20 546
e 20 563
e 20 681
e 20 803
e 20 826
e 20 837
e 20 849
e 20 865
e 20 866
e 20 921
e 20 987
e 20 995
e 21 307
e 21 330
e 21 335
e 21 362
e 21 366
e 21 382
e 21 387
e 21 392
e 21 396
e 21 420
e 21 441
e 21 448
e 21 480
e 21 501
e 21 591
e 21 639
e 21 710
e 21 741
e 21 746
e 21 789
e 21 824
e 21 916
e 21 932
e 21 997
e 22 417
e 22 423
e 22 477
e 22 494
e 22 510
e 22 569
e 22 578
e 22 582
e 22 606
e 22 625
e 22 697
e 22 702
e 22 740
e 22 766
e 22 777
e 22 826
e 22 872
e 22 877
e 22 948
e 23 263
e 23 300
e 23 327
e 23 339
e 23 394
e 23 439
e 23 467
e 23 471
e 23 478
e 23 585
e 23 593
e 23 704
e 23 789
e 23 793
e 23 808
e 23 810
e 23 814
e 23 845
e 23 850
e 23 860
e 23 894
e 23 900
e 23 963
e 23 984
e 23 988
e 24 253
e 24 254
e 24 325
e 24 333
e 24 418
e 24 437
e 24 475
e 24 511
e 24 513
e 24 525
e 24 540
e 24 569
e 24 583
e 24 587
e 24 597
e 24 622
e 24 695
e 24 746
e 24 805
e 24 884
e 24 899
e 24 948
e 24 969
e 24 970
e 24 978
e 25 303
e 25 336
e 25 351
e 25 382
e 25 391
e 25 397
e 25 412
e 25 429
e 25 452
e 25 472
e 25 527
e 25 619
e 25 624
e 25 653
e 25 678
e 25 686
e 25 712
e 25 744
e 25 761
e 25 770
e 25 825
e 25 826
e 25 922
e 26 290
e 26 291
e 26 298
e 26 318
e 26 398
e 26 447
e 26 474
e 26 540
e 26 609
e 26 645
e 26 654
e 26 719
e 26 779
e 26 835
e 26 870
e 26 880
e 26 903
e 26 939
e 27 287
e 27 325
e 27 347
e 27 356
e 27 357
e 27 405
e 27 452
e 27 515
e 27 528
e 27 565
e 27 586
e 27 608
e 27 713
e 27 729
e 27 734
e 27 742
e 27 767
e 27 778
e 27 785
e 27 791
e 27 832
e 27 840
e 27 913
e 27 937
e 27 941
e 27 963
e 28 256
e 28 366
e 28 377
e 28 465
e 28 492
e 28 510
e 28 513
e 28 551
e 28 584
e 28 595
e 28 778
e 28 835
e 28 860
e 28 914
e 28 940
e 28 956
e 29 287
e 29 380
e 29 388
e 29 397
e 29 498
e 29 518
e 29 567
e 29 609
e 29 623
e 29 627
e 29 649
e 29 777
e 29 796
e 29 845
e 29 852
e 29 857
e 29 895
e 29 920
e 30 387
e 30 407
e 30 424
e 30 492
e 30 521
e 30 654
e 30 663
e 30 700
e 30 701
e 30 724
e 30 734
e 30 741
e 30 749
e 30 835
e 30 843
e 30 851
e 30 899
e 30 907
e 30 935
e 30 986
e 31 272
e 31 325
e 31 342
e 31 371
e 31 395
e 31 459
e 31 484
e 31 501
e 31 510
e 31 562
e 31 582
e 31 590
e 31 607
e 31 668
e 31 707
e 31 798
e 31 830
e 31 841
e 31 846
e 31 858
e 31 934
e 31 995
e 32 256
e 32 257
e 32 309
e 32 318
e 32 336
e 32 345
e 32 390
e 32 392
e 32 402
e 32 432
e 32 442
e 32 454
e 32 460
e 32 462
e 32 484
e 32 500
e 32 533
e 32 541
e 32 604
e 32 611
e 32 645
e 32 648
e 32 651
e 32 662
e 32 698
e 32 765
e 32 820
e 33 264
e 33 273
e 33 357
e 33 400
e 33 413
e 33 452
e 33 460
e 33 493
e 33 566
e 33 570
e 33 571
e 33 586
e 33 671
e 33 687
e 33 701
e 33 705
e 33 714
e 33 730
e 33 747
e 33 775
e 33 819
e 33 865
e 33 866
e 33 870
e 33 941
e 33 982
e 34 299
e 34 366
e 34 380
e 34 400
e 34 402
e 34 411
e 34 419
e 34 445
e 34 564
e 34 599
e 34 654
e 34 711
e 34 744
e 34 749
e 34 780
e 34 784
e 34 802
e 34 898
e 34 924
e 34 968
e 35 304
e 35 328
e 35 330
e 35 331
e 35 351
e 35 352
e 35 398
e 35 399
e 35 434
e 35 507
e 35 574
e 35 581
e 35 624
e 35 645
e 35 671
e 35 757
e 35 773
e 35 805
e 35 833
e 35 852
e 35 923
e 35 961
e 35 977
e 35 986
e 36 286
e 36 298
e 36 336
e 36 362
e 36 448
e 36 461
e 36 561
e 36 575
e 36 597
e 36 600
e 36 622
e 36 717
e 36 741
e 36 818
e 36 878
e 36 882
e 36 886
e 36 904
e 36 980
e 37 287
e 37 289
e 37 331
e 37 351
e 37 459
e 37 512
e 37 528
e 37 553
e 37 588
e 37 796
e 37 808
e 37 818
e 37 826
e 37 843
e 37 845
e 37 945
e 38 278
e 38 336
e 38 340
e 38 365
e 38 368
e 38 430
e 38 470
e 38 471
e 38 472
e 38 478
e 38 511
e 38 540
e 38 619
e 38 634
e 38 727
e 38 799
e 38 865
e 38 867
e 38 907
e 38 912
e 38 940
e 38 971
e 39 333
e 39 378
e 39 383
e 39 391
e 39 432
e 39 445
e 39 495
e 39 585
e 39 712
e 39 713
e 39 751
e 39 762
e 39 810
e 39 819
e 39 825
e 39 858
e 39 936
e 39 956
e 39 978
e 39 980
e 39 984
e 39 994
e 40 310
e 40 357
e 40 360
e 40 368
e 40 385
e 40 404
e 40 427
e 40 510
e 40 528
e 40 553
e 40 557
e 40 610
e 40 656
e 40 665
e 40 706
e 40 747
e 40 752
e 40 831
e 40 886
e 40 932
e 40 987
e 41 313
e 41 317
e 41 320
e 41 331
e 41 366
e 41 372
e 41 387
e 41 408
e 41 432
e 41 436
e 41 440
e 41 460
e 41 469
e 41 562
e 41 568
e 41 595
e 41 617
e 41 649
e 41 664
e 41 679
e 41 692
e 41 711
e 41 712
e 41 713
e 41 742
e 41 763
e 41 837
e 41 839
e 41 848
e 41 918
e 41 921
e 41 930
e 41 969
e 41 975
e 41 1000
e 42 254
e 42 314
e 42 391
e 42 396
e 42 408
e 42 414
e 42 438
e 42 480
e 42 506
e 42 555
e 42 563
e 42 564
e 42 647
e 42 671
e 42 680
e 42 743
e 42 779
e 42 798
e 42 821
e 42 889
e 42 915
e 42 971
e 42 972
e 43 274
e 43 301
e 43 321
e 43 457
e 43 464
e 43 480
e 43 515
e 43 723
e 43 746
e 43 751
e 43 766
e 43 782
e 43 787
e 43 797
e 43 878
e 43 887
e 43 938
e 43 944
e 43 984
e 44 315
e 44 343
e 44 373
e 44 416
e 44 476
e 44 488
e 44 495
e 44 509
e 44 570
e 44 585
e 44 618
e 44 720
e 44 743
e 44 771
e 44 911
e 44 957
e 44 980
e 45 313
e 45 335
e 45 340
e 45 371
e 45 387
e 45 390
e 45 405
e 45 430
e 45 463
e 45 527
e 45 567
e 45 589
e 45 600
e 45 624
e 45 658
e 45 740
e 45 742
e 45 764
e 45 772
e 45 779
e 45 815
e 45 837
e 45 844
e 45 862
e 45 906
e 45 945
e 45 963
e 45 999
e 46 332
e 46 371
e 46 373
e 46 447
e 46 467
e 46 508
e 46 562
e 46 576
e 46 589
e 46 607
e 46 622
e 46 631
e 46 643
e 46 672
e 46 727
e 46 753
e 46 755
e 46 799
e 46 874
e 46 880
e 46 891
e 46 923
e 46 975
e 47 373
e 47 394
e 47 408
e 47 490
e 47 631
e 47 675
e 47 720
e 47 750
e 47 797
e 47 974
e 48 253
e 48 280
e 48 328
e 48 344
e 48 354
e 48 382
e 48 425
e 48 463
e 48 528
e 48 567
e 48 601
e 48 611
e 48 615
e 48 689
e 48 699
e 48 732
e 48 788
e 48 799
e 48 902
e 48 911
e 48 923
e 48 950
e 48 957
e 49 268
e 49 277
e 49 334
e 49 384
e 49 397
e 49 406
e 49 506
e 49 514
e 49 566
e 49 595
e 49 606
e 49 641
e 49 654
e 49 657
e 49 684
e 49 691
e 49 706
e 49 713
e 49 735
e 49 839
e 49 885
e 49 921
e 49 988
e 50 267
e 50 292
e 50 305
e 50 309
e 50 335
e 50 341
e 50 402
e 50 410
e 50 413
e 50 415
e 50 440
e 50 441
e 50 465
e 50 477
e 50 494
e 50 552
e 50 568
e 50 571
e 50 599
e 50 645
e 50 673
e 50 720
e 50 739
e 50 747
e 50 759
e 50 760
e 50 806
e 50 961
e 50 978
e 51 263
e 51 293
e 51 434
e 51 447
e 51 500
e 51 515
e 51 541
e 51 577
e 51 591
e 51 618
e 51 624
e 51 669
e 51 710
e 51 750
e 51 778
e 51 817
e 51 841
e 51 898
e 51 976
e 51 980
e 51 995
e 52 293
e 52 302
e 52 309
e 52 349
e 52 401
e 52 420
e 52 451
e 52 461
e 52 478
e 52 550
e 52 562
e 52 577
e 52 608
e 52 609
e 52 615
e 52 707
e 52 734
e 52 747
e 52 802
e 52 841
e 52 901
e 52 956
e 52 970
e 53 323
e 53 429
e 53 460
e 53 463
e 53 493
e 53 498
e 53 541
e 53 585
e 53 614
e 53 645
e 53 666
e 53 667
e 53 671
e 53 702
e 53 706
e 53 747
e 53 762
e 53 783
e 53 813
e 53 818
e 53 836
e 53 864
e 53 916
e 53 970
e 54 329
e 54 342
e 54 372
e 54 389
e 54 413
e 54 422
e 54 437
e 54 516
e 54 532
e 54 545
e 54 562
e 54 584
e 54 587
e 54 616
e 54 661
e 54 681
e 54 780
e 54 804
e 54 829
e 54 862
e 54 883
e 54 887
e 54 891
e 54 928
e 55 258
e 55 269
e 55 273
e 55 296
e 55 327
e 55 362
e 55 381
e 55 428
e 55 452
e 55 531
e 55 564
e 55 593
e 55 600
e 55 621
e 55 640
e 55 690
e 55 717
e 55 744
e 55 747
e 55 756
e 55 790
e 55 805
e 55 813
e 55 817
e 55 832
e 55 889
e 55 973
e 55 980
e 55 990
e 56 288
e 56 297
e 56 298
e 56 330
e 56 340
e 56 415
e 56 424
e 56 438
e 56 497
e 56 509
e 56 605
e 56 606
e 56 787
e 56 885
e 56 886
e 56 905
e 56 921
e 56 934
e 56 997
e 57 251
e 57 259
e 57 310
e 57 336
e 57 344
e 57 357
e 57 369
e 57 387
e 57 392
e 57 402
e 57 421
e 57 486
e 57 515
e 57 525
e 57 541
e 57 585
e 57 587
e 57 596
e 57 609
e 57 668
e 57 696
e 57 715
e 57 731
e 57 823
e 57 858
e 57 876
e 57 878
e 57 882
e 57 886
e 57 897
e 57 930
e 57 946
e 57 994
e 58 307
e 58 342
e 58 344
e 58 361
e 58 398
e 58 429
e 58 446
e 58 459
e 58 485
e 58 517
e 58 612
e 58 649
e 58 679
e 58 746
e 58 810
e 58 854
e 58 855
e 58 870
e 58 873
e 58 877
e 58 924
e 58 944
e 58 960
e 58 961
e 59 294
e 59 312
e 59 314
e 59 373
e 59 433
e 59 438
e 59 465
e 59 467
e 59 479
e 59 536
e 59 539
e 59 578
e 59 586
e 59 629
e 59 685
e 59 687
e 59 707
e 59 730
e 59 731
e 59 743
e 59 815
e 59 825
e 59 924
e 59 939
e 59 946
e 60 279
e 60 289
e 60 317
e 60 360
e 60 376
e 60 447
e 60 480
e 60 493
e 60 500
e 60 517
e 60 566
e 60 586
e 60 609
e 60 641
e 60 643
e 60 658
e 60 667
e 60 752
e 60 775
e 60 782
e 60 783
e 60 784
e 60 799
e 60 822
e 60 845
e 60 879
e 60 934
e 60 949
e 61 294
e 61 297
e 61 317
e 61 344
e 61 361
e 61 365
e 61 380
e 61 405
e 61 410
e 61 415
e 61 423
e 61 526
e 61 577
e 61 581
e 61 606
e 61 655
e 61 657
e 61 674
e 61 715
e 61 740
e 61 788
e 61 792
e 61 863
e 61 884
e 61 905
e 61 924
e 62 253
e 62 297
e 62 318
e 62 367
e 62 379
e 62 385
e 62 408
e 62 431
e 62 456
e 62 485
e 62 508
e 62 515
e 62 536
e 62 543
e 62 560
e 62 583
e 62 596
e 62 606
e 62 631
e 62 633
e 62 636
e 62 661
e 62 687
e 62 723
e 62 769
e 62 813
e 62 822
e 62 846
e 62 938
e 62 948
e 62 963
e 62 993
e 63 296
e 63 299
e 63 312
e 63 374
e 63 381
e 63 454
e 63 460
e 63 492
e 63 526
e 63 534
e 63 595
e 63 631
e 63 645
e 63 652
e 63 657
e 63 660
e 63 697
e 63 724
e 63 790
e 63 871
e 63 899
e 63 901
e 63 908
e 63 931
e 63 957
e 63 981
e 64 258
e 64 283
e 64 287
e 64 290
e 64 292
e 64 295
e 64 352
e 64 405
e 64 458
e 64 518
e 64 541
e 64 566
e 64 617
e 64 652
e 64 662
e 64 666
e 64 789
e 64 796
e 64 885
e 64 931
e 64 939
e 64 962
e 65 255
e 65 258
e 65 270
e 65 305
e 65 311
e 65 313
e 65 324
e 65 406
e 65 461
e 65 489
e 65 545
e 65 557
e 65 580
e 65 609
e 65 697
e 65 729
e 65 804
e 65 809
e 65 817
e 65 832
e 65 844
e 65 847
e 65 853
e 65 864
e 65 899
e 65 911
e 65 923
e 65 926
e 65 980
e 65 986
e 66 260
e 66 279
e 66 367
e 66 413
e 66 423
e 66 424
e 66 489
e 66 500
e 66 501
e 66 547
e 66 550
e 66 559
e 66 584
e 66 604
e 66 698
e 66 739
e 66 750
e 66 758
e 66 772
e 66 788
e 66 807
e 66 823
e 66 827
e 66 837
e 66 844
e 66 846
e 66 882
e 66 888
e 66 922
e 66 957
e 66 970
e 66 981
e 66 991
e 66 995
e 67 281
e 67 297
e 67 327
e 67 355
e 67 357
e 67 396
e 67 416
e 67 422
e 67 474
e 67 525
e 67 585
e 67 586
e 67 633
e 67 682
e 67 699
e 67 811
e 67 858
e 67 955
e 67 960
e 67 988
e 67 999
e 68 280
e 68 292
e 68 332
e 68 334
e 68 369
e 68 400
e 68 401
e 68 451
e 68 458
e 68 539
e 68 551
e 68 577
e 68 581
e 68 708
e 68 721
e 68 763
e 68 816
e 68 819
e 68 827
e 68 907
e 68 961
e 68 985
e 69 284
e 69 309
e 69 332
e 69 364
e 69 406
e 69 509
e 69 528
e 69 534
e 69 550
e 69 574
e 69 588
e 69 619
e 69 633
e 69 643
e 69 673
e 69 696
e 69 706
e 69 720
e 69 901
e 69 966
e 69 986
e 70 253
e 70 304
e 70 309
e 70 367
e 70 422
e 70 505
e 70 574
e 70 581
e 70 617
e 70 638
e 70 644
e 70 652
e 70 685
e 70 711
e 70 726
e 70 844
e 70 875
e 70 876
e 70 907
e 70 996
e 71 262
e 71 279
e 71 302
e 71 316
e 71 388
e 71 422
e 71 461
e 71 601
e 71 609
e 71 610
e 71 619
e 71 650
e 71 661
e 71 800
e 71 803
e 71 894
e 71 922
e 71 972
e 72 252
e 72 255
e 72 287
e 72 316
e 72 320
e 72 325
e 72 340
e 72 355
e 72 395
e 72 402
e 72 528
e 72 567
e 72 577
e 72 591
e 72 610
e 72 630
e 72 681
e 72 704
e 72 725
e 72 727
e 72 769
e 72 794
e 72 885
e 72 907
e 72 955
e 72 969
e 72 985
e 73 436
e 73 508
e 73 549
e 73 593
e 73 664
e 73 719
e 73 781
e 73 784
e 73 882
e 73 905
e 73 940
e 73 972
e 73 999
e 74 272
e 74 294
e 74 306
e 74 393
e 74 448
e 74 548
e 74 552
e 74 629
e 74 640
e 74 642
e 74 672
e 74 677
e 74 679
e 74 697
e 74 743
e 74 755
e 74 760
e 74 773
e 74 811
e 74 866
e 74 867
e 74 890
e 74 917
e 74 958
e 74 974
e 74 975
e 75 259
e 75 327
e 75 353
e 75 364
e 75 416
e 75 470
e 75 476
e 75 491
e 75 500
e 75 520
e 75 546
e 75 612
e 75 641
e 75 674
e 75 795
e 75 830
e 75 859
e 75 894
e 75 927
e 76 278
e 76 402
e 76 426
e 76 463
e 76 477
e 76 555
e 76 566
e 76 614
e 76 619
e 76 621
e 76 623
e 76 636
e 76 640
e 76 665
e 76 675
e 76 748
e 76 773
e 76 778
e 76 792
e 76 816
e 76 818
e 76 823
e 76 943
e 76 948
e 76 979
e 77 262
e 77 288
e 77 379
e 77 422
e 77 458
e 77 479
e 77 498
e 77 535
e 77 570
e 77 626
e 77 632
e 77 696
e 77 698
e 77 754
e 77 778
e 77 782
e 77 794
e 77 809
e 77 850
e 77 862
e 77 902
e 77 912
e 77 941
e 78 333
e 78 351
e 78 371
e 78 376
e 78 405
e 78 431
e 78 501
e 78 602
e 78 636
e 78 664
e 78 683
e 78 686
e 78 692
e 78 741
e 78 822
e 78 917
e 78 924
e 78 930
e 78 936
e 78 996
e 79 265
e 79 269
e 79 320
e 79 323
e 79 339
e 79 390
e 79 433
e 79 488
e 79 497
e 79 570
e 79 600
e 79 655
e 79 715
e 79 721
e 79 754
e 79 763
e 79 769
e 79 835
e 79 921
e 79 955
e 80 268
e 80 270
e 80 279
e 80 425
e 80 450
e 80 453
e 80 463
e 80 524
e 80 594
e 80 595
e 80 626
e 80 632
e 80 682
e 80 715
e 80 719
e 80 791
e 80 794
e 80 839
e 80 850
e 80 918
e 80 928
e 80 962
e 80 971
e 81 279
e 81 350
e 81 370
e 81 478
e 81 501
e 81 516
e 81 554
e 81 581
e 81 667
e 81 674
e 81 745
e 81 852
e 81 879
e 81 930
e 82 252
e 82 273
e 82 285
e 82 306
e 82 320
e 82 324
e 82 369
e 82 382
e 82 383
e 82 397
e 82 432
e 82 446
e 82 452
e 82 477
e 82 486
e 82 648
e 82 690
e 82 695
e 82 699
e 82 724
e 82 886
e 82 887
e 82 895
e 82 906
e 82 925
e 83 260
e 83 283
e 83 284
e 83 300
e 83 320
e 83 365
e 83 427
e 83 467
e 83 528
e 83 554
e 83 573
e 83 585
e 83 604
e 83 681
e 83 706
e 83 740
e 83 813
e 83 837
e 83 842
e 83 845
e 83 889
e 83 992
e 83 995
e 83 1000
e 84 251
e 84 303
e 84 348
e 84 437
e 84 508
e 84 552
e 84 578
e 84 601
e 84 615
e 84 632
e 84 640
e 84 684
e 84 737
e 84 812
e 84 820
e 84 859
e 84 889
e 84 909
e 84 923
e 84 932
e 84 942
e 85 259
e 85 260
e 85 351
e 85 378
e 85 419
e 85 442
e 85 461
e 85 498
e 85 597
e 85 625
e 85 664
e 85 715
e 85 728
e 85 743
e 85 789
e 85 794
e 85 903
e 86 291
e 86 292
e 86 320
e 86 351
e 86 369
e 86 398
e 86 511
e 86 523
e 86 584
e 86 593
e 86 647
e 86 649
e 86 661
e 86 662
e 86 710
e 86 856
e 86 884
e 86 913
e 86 957
e 86 999
e 87 251
e 87 321
e 87 364
e 87 393
e 87 465
e 87 568
e 87 570
e 87 666
e 87 668
e 87 705
e 87 716
e 87 765
e 87 776
e 87 889
e 87 908
e 87 970
e 88 254
e 88 258
e 88 274
e 88 307
e 88 361
e 88 374
e 88 379
e 88 416
e 88 425
e 88 432
e 88 437
e 88 448
e 88 505
e 88 551
e 88 606
e 88 621
e 88 641
e 88 680
e 88 738
e 88 778
e 88 795
e 88 802
e 88 858
e 88 862
e 88 888
e 89 287
e 89 322
e 89 333
e 89 362
e 89 363
e 89 380
e 89 423
e 89 432
e 89 441
e 89 466
e 89 470
e 89 485
e 89 492
e 89 529
e 89 607
e 89 652
e 89 680
e 89 698
e 89 816
e 89 838
e 89 842
e 89 849
e 90 266
e 90 268
e 90 280
e 90 348
e 90 368
e 90 390
e 90 399
e 90 422
e 90 503
e 90 528
e 90 551
e 90 555
e 90 565
e 90 582
e 90 594
e 90 649
e 90 672
e 90 678
e 90 737
e 90 743
e 90 752
e 90 763
e 90 790
e 90 797
e 90 829
e 90 895
e 90 948
e 90 958
e 91 289
e 91 366
e 91 423
e 91 450
e 91 458
e 91 459
e 91 482
e 91 556
e 91 571
e 91 681
e 91 706
e 91 708
e 91 729
e 91 749
e 91 755
e 91 805
e 91 821
e 91 829
e 91 849
e 91 879
e 91 898
e 91 899
e 91 905
e 91 958
e 91 997
e 92 307
e 92 327
e 92 338
e 92 353
e 92 364
e 92 376
e 92 406
e 92 408
e 92 428
e 92 452
e 92 467
e 92 495
e 92 514
e 92 551
e 92 652
e 92 684
e 92 706
e 92 795
e 92 805
e 92 813
e 92 855
e 92 858
e 92 886
e 92 897
e 92 923
e 92 970
e 93 281
e 93 295
e 93 310
e 93 335
e 93 339
e 93 351
e 93 398
e 93 470
e 93 485
e 93 519
e 93 528
e 93 564
e 93 593
e 93 618
e 93 624
e 93 643
e 93 663
e 93 681
e 93 739
e 93 800
e 93 824
e 93 915
e 93 936
e 93 972
e 94 283
e 94 293
e 94 295
e 94 300
e 94 311
e 94 344
e 94 401
e 94 408
e 94 420
e 94 423
e 94 486
e 94 513
e 94 535
e 94 572
e 94 603
e 94 606
e 94 613
e 94 648
e 94 713
e 94 714
e 94 716
e 94 741
e 94 745
e 94 753
e 94 860
e 94 865
e 94 903
e 94 953
e 94 960
e 94 974
e 94 983
e 94 996
e 95 274
e 95 294
e 95 372
e 95 380
e 95 387
e 95 405
e 95 494
e 95 506
e 95 574
e 95 580
e 95 612
e 95 648
e 95 663
e 95 673
e 95 687
e 95 759
e 95 813
e 95 852
e 95 865
e 95 884
e 95 902
e 95 912
e 95 975
e 96 253
e 96 335
e 96 411
e 96 413
e 96 462
e 96 471
e 96 493
e 96 527
e 96 539
e 96 578
e 96 633
e 96 681
e 96 699
e 96 723
e 96 774
e 96 843
e 96 848
e 96 907
e 97 301
e 97 326
e 97 338
e 97 346
e 97 357
e 97 373
e 97 414
e 97 432
e 97 475
e 97 502
e 97 530
e 97 546
e 97 713
e 97 715
e 97 734
e 97 753
e 97 763
e 97 764
e 97 773
e 97 814
e 97 845
e 97 866
e 97 932
e 97 959
e 97 997
e 98 261
e 98 264
e 98 340
e 98 353
e 98 396
e 98 461
e 98 495
e 98 510
e 98 513
e 98 529
e 98 551
e 98 579
e 98 607
e 98 643
e 98 662
e 98 703
e 98 719
e 98 816
e 98 881
e 98 903
e 98 905
e 98 989
e 99 263
e 99 283
e 99 296
e 99 302
e 99 333
e 99 354
e 99 436
e 99 477
e 99 543
e 99 625
e 99 646
e 99 798
e 99 821
e 99 877
e 99 878
e 99 880
e 99 942
e 99 961
e 99 993
e 100 262
e 100 269
e 100 324
e 100 357
e 100 381
e 100 383
e 100 393
e 100 418
e 100 439
e 100 474
e 100 642
e 100 654
e 100 663
e 100 697
e 100 698
e 100 710
e 100 714
e 100 715
e 100 737
e 100 762
e 100 764
e 100 875
e 100 902
e 100 919
e 100 954
e 100 994
e 101 271
e 101 281
e 101 294
e 101 325
e 101 471
e 101 474
e 101 564
e 101 580
e 101 583
e 101 589
e 101 644
e 101 672
e 101 699
e 101 709
e 101 714
e 101 727
e 101 773
e 101 814
e 101 833
e 101 834
e 101 961
e 101 962
e 101 963
e 101 968
e 101 987
e 102 252
e 102 352
e 102 414
e 102 425
e 102 437
e 102 454
e 102 510
e 102 557
e 102 577
e 102 578
e 102 659
e 102 712
e 102 771
e 102 787
e 102 969
e 102 978
e 103 391
e 103 396
e 103 410
e 103 420
e 103 429
e 103 491
e 103 589
e 103 619
e 103 666
e 103 746
e 103 749
e 103 791
e 103 799
e 103 837
e 103 844
e 103 857
e 103 992
e 104 251
e 104 417
e 104 444
e 104 470
e 104 500
e 104 644
e 104 729
e 104 731
e 104 735
e 104 736
e 104 742
e 104 753
e 104 785
e 104 820
e 104 851
e 104 868
e 104 913
e 104 970
e 105 272
e 105 329
e 105 342
e 105 409
e 105 417
e 105 425
e 105 451
e 105 510
e 105 524
e 105 541
e 105 672
e 105 716
e 105 742
e 105 759
e 105 773
e 105 800
e 105 810
e 105 844
e 105 850
e 105 875
e 105 926
e 105 934
e 105 938
e 105 959
e 106 286
e 106 304
e 106 335
e 106 365
e 106 391
e 106 431
e 106 467
e 106 545
e 106 619
e 106 621
e 106 629
e 106 670
e 106 720
e 106 823
e 106 851
e 106 930
e 106 938
e 106 963
e 106 964
e 106 968
e 107 293
e 107 325
e 107 327
e 107 391
e 107 393
e 107 401
e 107 432
e 107 499
e 107 503
e 107 695
e 107 704
e 107 710
e 107 721
e 107 727
e 107 775
e 107 811
e 107 815
e 107 882
e 107 926
e 107 935
e 107 993
e 108 292
e 108 296
e 108 368
e 108 403
e 108 430
e 108 520
e 108 532
e 108 535
e 108 548
e 108 616
e 108 628
e 108 636
e 108 656
e 108 738
e 108 752
e 108 857
e 108 865
e 108 885
e 108 903
e 108 955
e 108 962
e 109 257
e 109 258
e 109 276
e 109 296
e 109 314
e 109 317
e 109 326
e 109 331
e 109 351
e 109 353
e 109 363
e 109 407
e 109 409
e 109 411
e 109 547
e 109 583
e 109 600
e 109 666
e 109 718
e 109 724
e 109 750
e 109 766
e 109 956
e 109 961
e 109 962
e 109 971
e 109 974
e 110 284
e 110 305
e 110 306
e 110 334
e 110 337
e 110 368
e 110 392
e 110 456
e 110 567
e 110 608
e 110 628
e 110 730
e 110 731
e 110 788
e 110 798
e 110 802
e 110 818
e 110 862
e 110 874
e 110 894
e 110 941
e 110 945
e 110 963
e 110 969
e 110 977
e 110 981
e 111 345
e 111 358
e 111 453
e 111 482
e 111 524
e 111 566
e 111 577
e 111 595
e 111 625
e 111 641
e 111 710
e 111 712
e 111 723
e 111 775
e 111 779
e 111 814
e 111 848
e 111 870
e 111 887
e 111 968
e 111 982
e 112 263
e 112 289
e 112 307
e 112 315
e 112 376
e 112 385
e 112 445
e 112 459
e 112 469
e 112 594
e 112 647
e 112 652
e 112 658
e 112 688
e 112 702
e 112 756
e 112 771
e 112 819
e 112 861
e 112 869
e 112 890
e 112 903
e 112 909
e 112 934
e 112 959
e 112 986
e 112 988
e 113 281
e 113 452
e 113 485
e 113 509
e 113 510
e 113 601
e 113 603
e 113 700
e 113 758
e 113 786
e 113 799
e 113 844
e 113 862
e 113 865
e 114 267
e 114 344
e 114 368
e 114 404
e 114 415
e 114 448
e 114 466
e 114 505
e 114 508
e 114 514
e 114 540
e 114 543
e 114 568
e 114 586
e 114 593
e 114 608
e 114 674
e 114 692
e 114 695
e 114 707
e 114 712
e 114 724
e 114 752
e 114 801
e 114 829
e 114 833
e 114 848
e 114 878
e 114 895
e 114 923
e 114 946
e 114 996
e 114 999
e 115 273
e 115 332
e 115 416
e 115 421
e 115 518
e 115 553
e 115 563
e 115 597
e 115 599
e 115 616
e 115 634
e 115 712
e 115 753
e 115 765
e 115 770
e 115 859
e 115 930
e 115 940
e 115 949
e 115 950
e 116 276
e 116 348
e 116 450
e 116 594
e 116 632
e 116 647
e 116 654
e 116 655
e 116 686
e 116 721
e 116 790
e 116 823
e 116 850
e 116 880
e 116 936
e 116 967
e 116 969
e 117 344
e 117 346
e 117 379
e 117 469
e 117 473
e 117 533
e 117 554
e 117 565
e 117 617
e 117 663
e 117 667
e 117 669
e 117 690
e 117 725
e 117 743
e 117 934
e 117 985
e 117 986
e 117 987
e 118 266
e 118 296
e 118 339
e 118 352
e 118 389
e 118 394
e 118 410
e 118 443
e 118 471
e 118 525
e 118 545
e 118 571
e 118 626
e 118 674
e 118 677
e 118 686
e 118 741
e 118 749
e 118 761
e 118 817
e 118 850
e 118 853
e 118 887
e 118 889
e 118 953
e 118 1000
e 119 257
e 119 275
e 119 403
e 119 409
e 119 459
e 119 465
e 119 499
e 119 516
e 119 562
e 119 574
e 119 575
e 119 611
e 119 696
e 119 713
e 119 802
e 119 881
e 119 895
e 119 941
e 119 944
e 119 969
e 119 988
e 119 990
e 120 255
e 120 291
e 120 306
e 120 361
e 120 368
e 120 384
e 120 476
e 120 540
e 120 543
e 120 582
e 120 604
e 120 605
e 120 616
e 120 618
e 120 621
e 120 706
e 120 707
e 120 744
e 120 774
e 120 780
e 120 839
e 120 862
e 120 899
e 120 909
e 120 923
e 121 263
e 121 308
e 121 318
e 121 331
e 121 378
e 121 398
e 121 409
e 121 439
e 121 459
e 121 509
e 121 524
e 121 547
e 121 580
e 121 609
e 121 675
e 121 814
e 121 822
e 121 846
e 121 861
e 121 873
e 121 898
e 121 914
e 121 952
e 121 964
e 122 255
e 122 310
e 122 318
e 122 350
e 122 351
e 122 375
e 122 388
e 122 445
e 122 508
e 122 538
e 122 571
e 122 583
e 122 595
e 122 599
e 122 636
e 122 644
e 122 645
e 122 687
e 122 697
e 122 747
e 122 798
e 122 824
e 122 869
e 122 873
e 122 878
e 122 899
e 122 924
e 123 284
e 123 334
e 123 410
e 123 413
e 123 453
e 123 484
e 123 501
e 123 524
e 123 635
e 123 768
e 123 793
e 123 814
e 123 968
e 123 981
e 124 295
e 124 309
e 124 324
e 124 356
e 124 366
e 124 381
e 124 480
e 124 573
e 124 593
e 124 634
e 124 671
e 124 681
e 124 696
e 124 731
e 124 802
e 124 819
e 124 840
e 124 854
e 124 890
e 124 931
e 124 975
e 124 979
e 124 980
e 125 322
e 125 345
e 125 364
e 125 437
e 125 440
e 125 448
e 125 531
e 125 532
e 125 537
e 125 541
e 125 546
e 125 578
e 125 579
e 125 598
e 125 664
e 125 775
e 125 806
e 125 844
e 125 905
e 125 909
e 125 941
e 125 943
e 125 961
e 125 973
e 126 292
e 126 338
e 126 350
e 126 356
e 126 398
e 126 505
e 126 519
e 126 539
e 126 589
e 126 606
e 126 670
e 126 698
e 126 784
e 126 801
e 126 806
e 126 815
e 126 853
e 126 870
e 126 883
e 126 908
e 126 926
e 126 989
e 126 997
e 127 323
e 127 346
e 127 369
e 127 388
e 127 410
e 127 531
e 127 598
e 127 625
e 127 657
e 127 677
e 127 697
e 127 774
e 127 813
e 127 822
e 127 865
e 127 875
e 127 927
e 127 952
e 127 962
e 127 970
e 127 975
e 127 981
e 128 288
e 128 346
e 128 423
e 128 432
e 128 449
e 128 473
e 128 517
e 128 539
e 128 543
e 128 595
e 128 603
e 128 605
e 128 637
e 128 667
e 128 694
e 128 700
e 128 726
e 128 737
e 128 805
e 128 806
e 128 854
e 128 885
e 128 887
e 129 326
e 129 399
e 129 419
e 129 460
e 129 476
e 129 478
e 129 524
e 129 575
e 129 606
e 129 646
e 129 676
e 129 698
e 129 783
e 129 801
e 129 805
e 129 853
e 129 895
e 129 937
e 129 966
e 129 986
e 129 989
e 130 252
e 130 297
e 130 545
e 130 623
e 130 640
e 130 749
e 130 756
e 130 758
e 130 787
e 130 888
e 130 891
e 130 909
e 130 952
e 130 974
e 131 331
e 131 385
e 131 407
e 131 430
e 131 434
e 131 484
e 131 558
e 131 626
e 131 653
e 131 678
e 131 706
e 131 728
e 131 759
e 131 782
e 131 837
e 131 841
e 131 889
e 131 890
e 131 929
e 131 958
e 131 972
e 132 256
e 132 269
e 132 291
e 132 314
e 132 399
e 132 409
e 132 435
e 132 445
e 132 522
e 132 566
e 132 584
e 132 642
e 132 657
e 132 665
e 132 730
e 132 755
e 132 768
e 132 769
e 132 776
e 132 884
e 132 885
e 132 886
e 132 905
e 132 933
e 132 958
e 132 965
e 132 969
e 132 994
e 133 273
e 133 280
e 133 404
e 133 483
e 133 519
e 133 525
e 133 595
e 133 621
e 133 709
e 133 718
e 133 751
e 133 793
e 133 916
e 133 930
e 133 949
e 133 951
e 133 958
e 134 284
e 134 326
e 134 358
e 134 380
e 134 409
e 134 652
e 134 658
e 134 755
e 134 758
e 134 761
e 134 770
e 134 793
e 134 821
e 134 829
e 134 848
e 134 850
e 134 875
e 134 894
e 134 996
e 135 282
e 135 301
e 135 306
e 135 309
e 135 349
e 135 392
e 135 433
e 135 442
e 135 461
e 135 490
e 135 496
e 135 513
e 135 542
e 135 578
e 135 585
e 135 608
e 135 617
e 135 701
e 135 722
e 135 781
e 135 787
e 135 798
e 135 817
e 135 830
e 135 833
e 135 874
e 135 914
e 135 924
e 135 945
e 135 988
e 135 995
e 136 251
e 136 257
e 136 280
e 136 363
e 136 364
e 136 379
e 136 403
e 136 408
e 136 412
e 136 422
e 136 425
e 136 433
e 136 438
e 136 443
e 136 452
e 136 513
e 136 531
e 136 582
e 136 597
e 136 646
e 136 673
e 136 706
e 136 772
e 136 811
e 136 878
e 136 896
e 136 922
e 137 253
e 137 274
e 137 332
e 137 340
e 137 353
e 137 366
e 137 370
e 137 459
e 137 502
e 137 512
e 137 513
e 137 538
e 137 644
e 137 658
e 137 790
e 137 811
e 137 851
e 137 887
e 137 920
e 137 951
e 138 285
e 138 343
e 138 394
e 138 411
e 138 466
e 138 467
e 138 477
e 138 486
e 138 537
e 138 605
e 138 631
e 138 725
e 138 726
e 138 745
e 138 749
e 138 767
e 138 824
e 138 869
e 138 890
e 138 900
e 138 914
e 138 920
e 138 934
e 138 945
e 139 458
e 139 495
e 139 514
e 139 582
e 139 586
e 139 587
e 139 589
e 139 612
e 139 663
e 139 671
e 139 718
e 139 751
e 139 780
e 139 814
e 139 821
e 139 878
e 139 937
e 139 946
e 140 341
e 140 359
e 140 384
e 140 411
e 140 426
e 140 448
e 140 460
e 140 475
e 140 491
e 140 515
e 140 543
e 140 580
e 140 591
e 140 630
e 140 664
e 140 674
e 140 677
e 140 739
e 140 854
e 140 863
e 140 916
e 140 958
e 140 960
e 141 271
e 141 366
e 141 376
e 141 402
e 141 437
e 141 452
e 141 542
e 141 543
e 141 570
e 141 640
e 141 660
e 141 670
e 141 680
e 141 731
e 141 779
e 141 805
e 141 981
e 142 260
e 142 312
e 142 389
e 142 451
e 142 465
e 142 518
e 142 522
e 142 531
e 142 537
e 142 544
e 142 572
e 142 705
e 142 731
e 142 793
e 142 805
e 142 859
e 142 969
e 142 986
e 143 275
e 143 339
e 143 365
e 143 472
e 143 497
e 143 511
e 143 514
e 143 532
e 143 558
e 143 567
e 143 622
e 143 733
e 143 759
e 143 835
e 143 841
e 143 848
e 143 876
e 143 931
e 143 945
e 143 953
e 143 962
e 143 966
e 144 299
e 144 300
e 144 342
e 144 359
e 144 380
e 144 515
e 144 599
e 144 623
e 144 629
e 144 644
e 144 659
e 144 756
e 144 771
e 144 772
e 144 786
e 144 900
e 144 933
e 144 954
e 145 298
e 145 343
e 145 347
e 145 378
e 145 379
e 145 399
e 145 492
e 145 510
e 145 552
e 145 555
e 145 570
e 145 590
e 145 629
e 145 689
e 145 743
e 145 749
e 145 767
e 145 817
e 145 857
e 145 862
e 145 899
e 145 922
e 145 932
e 145 963
e 146 262
e 146 410
e 146 461
e 146 585
e 146 601
e 146 614
e 146 667
e 146 671
e 146 687
e 146 696
e 146 701
e 146 705
e 146 720
e 146 756
e 146 770
e 146 800
e 146 844
e 146 847
e 146 912
e 146 950
e 146 970
e 147 281
e 147 295
e 147 299
e 147 318
e 147 321
e 147 325
e 147 342
e 147 408
e 147 431
e 147 437
e 147 470
e 147 476
e 147 489
e 147 521
e 147 531
e 147 548
e 147 565
e 147 600
e 147 604
e 147 748
e 147 812
e 147 840
e 147 862
e 147 869
e 147 919
e 147 941
e 148 292
e 148 306
e 148 321
e 148 335
e 148 379
e 148 460
e 148 498
e 148 523
e 148 538
e 148 542
e 148 552
e 148 569
e 148 617
e 148 647
e 148 674
e 148 699
e 148 715
e 148 765
e 148 791
e 148 799
e 148 811
e 148 837
e 148 847
e 148 871
e 148 894
e 148 934
e 148 949
e 148 959
e 148 960
e 148 962
e 148 999
e 149 264
e 149 266
e 149 303
e 149 390
e 149 401
e 149 406
e 149 460
e 149 466
e 149 470
e 149 513
e 149 551
e 149 560
e 149 573
e 149 621
e 149 649
e 149 661
e 149 670
e 149 686
e 149 708
e 149 738
e 149 901
e 149 911
e 149 998
e 150 254
e 150 301
e 150 311
e 150 337
e 150 371
e 150 385
e 150 403
e 150 499
e 150 513
e 150 549
e 150 584
e 150 713
e 150 728
e 150 741
e 150 755
e 150 784
e 150 833
e 150 848
e 150 850
e 150 868
e 150 879
e 150 949
e 150 985
e 150 988
e 151 356
e 151 401
e 151 404
e 151 414
e 151 419
e 151 436
e 151 446
e 151 462
e 151 506
e 151 509
e 151 515
e 151 567
e 151 620
e 151 624
e 151 654
e 151 664
e 151 689
e 151 696
e 151 719
e 151 735
e 151 753
e 151 754
e 151 786
e 151 819
e 151 829
e 151 913
e 151 914
e 152 276
e 152 344
e 152 350
e 152 366
e 152 390
e 152 423
e 152 448
e 152 462
e 152 466
e 152 482
e 152 523
e 152 534
e 152 542
e 152 566
e 152 580
e 152 689
e 152 767
e 152 777
e 152 779
e 152 783
e 152 808
e 152 843
e 152 860
e 152 863
e 152 868
e 152 887
e 152 902
e 152 915
e 152 917
e 152 920
e 152 924
e 152 935
e 152 954
e 152 971
e 152 982
e 153 271
e 153 292
e 153 297
e 153 361
e 153 362
e 153 380
e 153 395
e 153 407
e 153 446
e 153 452
e 153 458
e 153 477
e 153 483
e 153 492
e 153 590
e 153 594
e 153 603
e 153 637
e 153 666
e 153 673
e 153 716
e 153 744
e 153 825
e 153 843
e 153 855
e 153 869
e 153 893
e 153 922
e 153 942
e 153 959
e 153 993
e 154 265
e 154 293
e 154 295
e 154 302
e 154 305
e 154 409
e 154 469
e 154 494
e 154 495
e 154 528
e 154 551
e 154 580
e 154 604
e 154 638
e 154 751
e 154 753
e 154 801
e 154 856
e 154 886
e 154 919
e 154 937
e 154 946
e 154 956
e 154 969
e 155 266
e 155 288
e 155 303
e 155 361
e 155 407
e 155 414
e 155 416
e 155 424
e 155 479
e 155 483
e 155 543
e 155 555
e 155 561
e 155 662
e 155 671
e 155 743
e 155 815
e 155 817
e 155 848
e 155 880
e 155 951
e 155 981
e 156 293
e 156 298
e 156 355
e 156 456
e 156 523
e 156 581
e 156 700
e 156 710
e 156 845
e 156 850
e 156 857
e 156 866
e 156 870
e 156 879
e 156 889
e 156 967
e 156 969
e 156 1000
e 157 255
e 157 278
e 157 316
e 157 392
e 157 407
e 157 410
e 157 423
e 157 426
e 157 431
e 157 444
e 157 530
e 157 539
e 157 575
e 157 589
e 157 611
e 157 662
e 157 764
e 157 786
e 157 803
e 157 836
e 157 847
e 157 851
e 157 853
e 157 871
e 157 899
e 158 290
e 158 367
e 158 372
e 158 393
e 158 444
e 158 446
e 158 475
e 158 488
e 158 535
e 158 563
e 158 574
e 158 586
e 158 602
e 158 613
e 158 620
e 158 663
e 158 671
e 158 746
e 158 791
e 158 802
e 158 839
e 158 897
e 158 904
e 158 909
e 158 963
e 158 969
e 159 260
e 159 292
e 159 295
e 159 343
e 159 387
e 159 420
e 159 480
e 159 485
e 159 614
e 159 625
e 159 654
e 159 680
e 159 805
e 159 854
e 159 866
e 159 874
e 159 894
e 159 996
e 160 278
e 160 280
e 160 300
e 160 331
e 160 350
e 160 474
e 160 500
e 160 518
e 160 568
e 160 613
e 160 671
e 160 674
e 160 688
e 160 751
e 160 758
e 160 792
e 160 799
e 160 839
e 160 876
e 160 903
e 160 914
e 160 916
e 160 951
e 160 960
e 160 972
e 160 996
e 160 997
e 161 299
e 161 374
e 161 377
e 161 411
e 161 421
e 161 451
e 161 494
e 161 521
e 161 596
e 161 604
e 161 662
e 161 745
e 161 808
e 161 825
e 161 828
e 161 901
e 161 940
e 161 941
e 161 945
e 161 970
e 162 272
e 162 304
e 162 305
e 162 329
e 162 436
e 162 555
e 162 558
e 162 561
e 162 571
e 162 601
e 162 634
e 162 640
e 162 649
e 162 659
e 162 678
e 162 701
e 162 704
e 162 740
e 162 796
e 162 811
e 162 824
e 162 828
e 162 847
e 162 955
e 162 968
e 163 253
e 163 319
e 163 338
e 163 343
e 163 358
e 163 360
e 163 364
e 163 407
e 163 411
e 163 440
e 163 443
e 163 461
e 163 482
e 163 488
e 163 576
e 163 626
e 163 633
e 163 693
e 163 697
e 163 704
e 163 775
e 163 814
e 163 834
e 163 857
e 163 904
e 163 965
e 163 996
e 163 1000
e 164 259
e 164 283
e 164 301
e 164 305
e 164 320
e 164 338
e 164 355
e 164 358
e 164 382
e 164 465
e 164 489
e 164 520
e 164 529
e 164 606
e 164 611
e 164 621
e 164 623
e 164 643
e 164 672
e 164 680
e 164 702
e 164 779
e 164 795
e 164 868
e 164 932
e 164 981
e 164 985
e 165 267
e 165 293
e 165 318
e 165 367
e 165 400
e 165 494
e 165 548
e 165 551
e 165 556
e 165 586
e 165 588
e 165 600
e 165 620
e 165 637
e 165 644
e 165 671
e 165 727
e 165 853
e 165 887
e 165 898
e 165 946
e 166 274
e 166 398
e 166 408
e 166 429
e 166 433
e 166 457
e 166 539
e 166 548
e 166 555
e 166 562
e 166 580
e 166 615
e 166 640
e 166 652
e 166 696
e 166 701
e 166 718
e 166 739
e 166 749
e 166 804
e 166 867
e 166 880
e 166 892
e 166 926
e 167 283
e 167 284
e 167 318
e 167 340
e 167 406
e 167 415
e 167 505
e 167 510
e 167 515
e 167 518
e 167 582
e 167 585
e 167 590
e 167 598
e 167 666
e 167 677
e 167 687
e 167 693
e 167 705
e 167 782
e 167 792
e 167 798
e 167 817
e 167 867
e 168 289
e 168 332
e 168 335
e 168 339
e 168 413
e 168 414
e 168 416
e 168 423
e 168 426
e 168 459
e 168 475
e 168 498
e 168 518
e 168 550
e 168 606
e 168 685
e 168 686
e 168 728
e 168 747
e 168 823
e 168 827
e 168 856
e 168 880
e 168 904
e 168 916
e 168 932
e 168 933
e 168 938
e 168 973
e 168 980
e 169 266
e 169 275
e 169 279
e 169 329
e 169 354
e 169 374
e 169 399
e 169 488
e 169 493
e 169 535
e 169 574
e 169 585
e 169 615
e 169 747
e 169 804
e 169 823
e 169 837
e 169 845
e 169 889
e 169 947
e 169 966
e 169 975
e 169 976
e 169 986
e 169 991
e 170 285
e 170 298
e 170 309
e 170 398
e 170 462
e 170 478
e 170 521
e 170 538
e 170 572
e 170 593
e 170 609
e 170 614
e 170 646
e 170 653
e 170 699
e 170 765
e 170 786
e 170 825
e 170 826
e 170 868
e 170 872
e 170 887
e 170 903
e 170 936
e 170 942
e 170 978
e 170 979
e 171 271
e 171 287
e 171 342
e 171 369
e 171 372
e 171 381
e 171 440
e 171 443
e 171 450
e 171 460
e 171 465
e 171 486
e 171 572
e 171 655
e 171 656
e 171 708
e 171 749
e 171 766
e 171 780
e 171 797
e 171 869
e 171 878
e 171 916
e 171 949
e 171 974
e 171 983
e 171 987
e 172 254
e 172 259
e 172 287
e 172 342
e 172 376
e 172 426
e 172 435
e 172 437
e 172 481
e 172 518
e 172 563
e 172 592
e 172 643
e 172 675
e 172 685
e 172 687
e 172 717
e 172 753
e 172 779
e 172 787
e 172 819
e 172 830
e 172 847
e 172 904
e 172 957
e 173 258
e 173 303
e 173 305
e 173 332
e 173 341
e 173 363
e 173 399
e 173 410
e 173 435
e 173 461
e 173 494
e 173 545
e 173 557
e 173 565
e 173 586
e 173 612
e 173 615
e 173 632
e 173 639
e 173 688
e 173 721
e 173 732
e 173 743
e 173 813
e 173 823
e 173 826
e 173 847
e 173 870
e 173 872
e 173 947
e 173 958
e 174 278
e 174 294
e 174 350
e 174 419
e 174 433
e 174 477
e 174 537
e 174 597
e 174 614
e 174 627
e 174 635
e 174 668
e 174 717
e 174 825
e 174 839
e 174 849
e 174 856
e 174 885
e 174 889
e 174 937
e 174 979
e 174 991
e 175 278
e 175 279
e 175 289
e 175 306
e 175 349
e 175 372
e 175 529
e 175 530
e 175 593
e 175 597
e 175 604
e 175 635
e 175 654
e 175 666
e 175 682
e 175 733
e 175 788
e 175 938
e 175 940
e 175 961
e 176 276
e 176 281
e 176 440
e 176 455
e 176 466
e 176 518
e 176 536
e 176 610
e 176 611
e 176 635
e 176 638
e 176 683
e 176 689
e 176 751
e 176 817
e 176 832
e 176 853
e 177 263
e 177 291
e 177 303
e 177 398
e 177 420
e 177 446
e 177 475
e 177 482
e 177 509
e 177 540
e 177 558
e 177 585
e 177 632
e 177 693
e 177 746
e 177 793
e 177 803
e 177 862
e 177 868
e 177 877
e 177 892
e 177 911
e 177 938
e 177 944
e 177 951
e 177 954
e 177 975
e 177 989
e 178 262
e 178 265
e 178 379
e 178 430
e 178 539
e 178 558
e 178 675
e 178 688
e 178 738
e 178 739
e 178 752
e 178 792
e 178 793
e 178 832
e 178 907
e 178 919
e 178 938
e 178 968
e 179 337
e 179 382
e 179 408
e 179 416
e 179 421
e 179 467
e 179 476
e 179 546
e 179 583
e 179 594
e 179 597
e 179 635
e 179 641
e 179 647
e 179 657
e 179 688
e 179 713
e 179 730
e 179 735
e 179 817
e 179 827
e 179 855
e 179 857
e 179 911
e 179 937
e 179 940
e 179 944
e 179 957
e 179 962
e 180 262
e 180 318
e 180 361
e 180 369
e 180 376
e 180 395
e 180 396
e 180 438
e 180 440
e 180 449
e 180 489
e 180 522
e 180 561
e 180 574
e 180 649
e 180 667
e 180 699
e 180 721
e 180 762
e 180 818
e 180 835
e 180 906
e 180 913
e 180 945
e 180 955
e 181 256
e 181 294
e 181 394
e 181 400
e 181 504
e 181 536
e 181 577
e 181 607
e 181 657
e 181 716
e 181 720
e 181 739
e 181 822
e 181 917
e 181 969
e 182 260
e 182 265
e 182 425
e 182 461
e 182 515
e 182 543
e 182 561
e 182 593
e 182 627
e 182 696
e 182 707
e 182 717
e 182 792
e 182 809
e 182 846
e 183 263
e 183 289
e 183 319
e 183 343
e 183 372
e 183 401
e 183 426
e 183 427
e 183 454
e 183 488
e 183 505
e 183 603
e 183 682
e 183 687
e 183 694
e 183 733
e 183 777
e 183 844
e 183 869
e 183 959
e 184 267
e 184 272
e 184 421
e 184 442
e 184 444
e 184 448
e 184 483
e 184 484
e 184 494
e 184 534
e 184 617
e 184 627
e 184 646
e 184 675
e 184 711
e 184 716
e 184 759
e 184 860
e 184 864
e 184 888
e 184 891
e 184 892
e 184 984
e 185 260
e 185 263
e 185 270
e 185 308
e 185 320
e 185 366
e 185 414
e 185 427
e 185 433
e 185 477
e 185 533
e 185 573
e 185 674
e 185 680
e 185 774
e 185 798
e 185 804
e 185 834
e 185 859
e 185 912
e 185 931
e 186 293
e 186 339
e 186 396
e 186 411
e 186 436
e 186 455
e 186 559
e 186 738
e 186 798
e 186 808
e 186 817
e 186 822
e 186 837
e 186 841
e 186 875
e 186 913
e 186 932
e 187 275
e 187 289
e 187 297
e 187 301
e 187 426
e 187 435
e 187 470
e 187 492
e 187 505
e 187 540
e 187 570
e 187 589
e 187 712
e 187 750
e 187 781
e 187 785
e 187 787
e 187 808
e 187 849
e 187 894
e 187 895
e 187 909
e 187 929
e 187 945
e 188 252
e 188 269
e 188 270
e 188 294
e 188 324
e 188 332
e 188 356
e 188 415
e 188 434
e 188 472
e 188 548
e 188 559
e 188 568
e 188 647
e 188 684
e 188 695
e 188 700
e 188 813
e 188 832
e 188 934
e 188 935
e 188 999
e 189 316
e 189 339
e 189 413
e 189 600
e 189 632
e 189 670
e 189 671
e 189 723
e 189 741
e 189 781
e 189 830
e 189 921
e 190 286
e 190 367
e 190 379
e 190 388
e 190 433
e 190 478
e 190 509
e 190 517
e 190 521
e 190 539
e 190 554
e 190 635
e 190 673
e 190 674
e 190 685
e 190 710
e 190 729
e 190 757
e 190 843
e 190 853
e 190 868
e 190 959
e 190 969
e 190 999
e 191 320
e 191 375
e 191 392
e 191 405
e 191 431
e 191 432
e 191 456
e 191 483
e 191 506
e 191 512
e 191 529
e 191 542
e 191 555
e 191 575
e 191 600
e 191 631
e 191 643
e 191 652
e 191 669
e 191 676
e 191 697
e 191 754
e 191 755
e 191 764
e 191 837
e 191 847
e 191 850
e 191 881
e 191 930
e 191 948
e 191 970
e 191 982
e 192 289
e 192 337
e 192 346
e 192 399
e 192 462
e 192 494
e 192 531
e 192 555
e 192 557
e 192 570
e 192 587
e 192 643
e 192 658
e 192 667
e 192 702
e 192 748
e 192 752
e 192 798
e 192 848
e 192 869
e 192 899
e 192 932
e 193 254
e 193 256
e 193 265
e 193 371
e 193 391
e 193 406
e 193 442
e 193 458
e 193 467
e 193 491
e 193 499
e 193 514
e 193 531
e 193 539
e 193 562
e 193 716
e 193 856
e 193 866
e 193 967
e 194 288
e 194 296
e 194 343
e 194 347
e 194 362
e 194 395
e 194 406
e 194 429
e 194 445
e 194 478
e 194 546
e 194 566
e 194 600
e 194 614
e 194 650
e 194 657
e 194 712
e 194 713
e 194 890
e 194 916
e 194 962
e 195 289
e 195 291
e 195 329
e 195 355
e 195 396
e 195 427
e 195 532
e 195 552
e 195 566
e 195 643
e 195 658
e 195 675
e 195 696
e 195 710
e 195 862
e 195 863
e 195 893
e 195 966
e 196 276
e 196 277
e 196 311
e 196 349
e 196 357
e 196 360
e 196 389
e 196 440
e 196 556
e 196 587
e 196 626
e 196 654
e 196 675
e 196 730
e 196 819
e 196 836
e 196 864
e 196 898
e 196 912
e 196 956
e 196 960
e 197 270
e 197 290
e 197 358
e 197 361
e 197 547
e 197 673
e 197 705
e 197 740
e 197 786
e 197 812
e 197 866
e 197 906
e 197 944
e 197 965
e 198 253
e 198 332
e 198 349
e 198 413
e 198 447
e 198 448
e 198 485
e 198 501
e 198 503
e 198 541
e 198 546
e 198 596
e 198 657
e 198 714
e 198 762
e 198 770
e 198 776
e 198 783
e 198 819
e 198 820
e 198 899
e 198 931
e 198 998
e 199 286
e 199 289
e 199 311
e 199 354
e 199 371
e 199 449
e 199 528
e 199 530
e 199 561
e 199 651
e 199 654
e 199 658
e 199 708
e 199 709
e 199 774
e 199 793
e 199 797
e 199 849
e 199 854
e 199 869
e 199 891
e 199 893
e 199 898
e 199 953
e 199 955
e 199 956
e 199 974
e 200 262
e 200 272
e 200 303
e 200 306
e 200 324
e 200 332
e 200 354
e 200 481
e 200 488
e 200 570
e 200 594
e 200 628
e 200 690
e 200 697
e 200 812
e 200 853
e 200 908
e 200 958
e 201 267
e 201 454
e 201 460
e 201 484
e 201 491
e 201 522
e 201 605
e 201 637
e 201 667
e 201 677
e 201 680
e 201 710
e 201 789
e 201 791
e 201 795
e 201 821
e 201 926
e 202 289
e 202 319
e 202 336
e 202 425
e 202 429
e 202 454
e 202 505
e 202 548
e 202 595
e 202 650
e 202 717
e 202 795
e 202 812
e 202 820
e 202 825
e 202 830
e 202 888
e 202 900
e 202 901
e 202 912
e 202 915
e 202 972
e 202 984
e 203 272
e 203 298
e 203 340
e 203 384
e 203 387
e 203 416
e 203 439
e 203 483
e 203 578
e 203 594
e 203 712
e 203 736
e 203 786
e 203 820
e 203 834
e 203 865
e 203 942
e 203 988
e 204 322
e 204 395
e 204 439
e 204 543
e 204 635
e 204 724
e 204 761
e 204 777
e 204 840
e 204 888
e 204 889
e 204 914
e 204 944
e 204 954
e 205 301
e 205 378
e 205 400
e 205 404
e 205 412
e 205 414
e 205 425
e 205 439
e 205 462
e 205 463
e 205 497
e 205 511
e 205 520
e 205 548
e 205 613
e 205 649
e 205 668
e 205 672
e 205 673
e 205 802
e 205 864
e 205 869
e 205 887
e 205 902
e 205 911
e 205 934
e 205 969
e 206 297
e 206 309
e 206 329
e 206 394
e 206 409
e 206 472
e 206 492
e 206 495
e 206 597
e 206 664
e 206 665
e 206 680
e 206 726
e 206 767
e 206 789
e 206 795
e 206 798
e 206 809
e 206 841
e 206 860
e 206 965
e 207 332
e 207 409
e 207 465
e 207 466
e 207 486
e 207 489
e 207 494
e 207 508
e 207 517
e 207 549
e 207 560
e 207 609
e 207 627
e 207 648
e 207 653
e 207 686
e 207 697
e 207 718
e 207 876
e 207 889
e 207 945
e 208 270
e 208 353
e 208 374
e 208 389
e 208 425
e 208 448
e 208 479
e 208 499
e 208 595
e 208 644
e 208 662
e 208 686
e 208 698
e 208 753
e 208 780
e 208 840
e 208 852
e 208 944
e 208 994
e 209 279
e 209 320
e 209 383
e 209 445
e 209 447
e 209 457
e 209 496
e 209 538
e 209 556
e 209 557
e 209 567
e 209 590
e 209 621
e 209 624
e 209 749
e 209 753
e 209 783
e 209 832
e 209 857
e 209 863
e 209 970
e 210 259
e 210 275
e 210 296
e 210 360
e 210 391
e 210 423
e 210 448
e 210 453
e 210 512
e 210 513
e 210 649
e 210 658
e 210 703
e 210 706
e 210 724
e 210 744
e 210 778
e 210 810
e 210 824
e 210 830
e 210 852
e 210 858
e 210 906
e 210 938
e 210 942
e 210 951
e 210 980
e 211 251
e 211 253
e 211 291
e 211 348
e 211 352
e 211 477
e 211 554
e 211 645
e 211 656
e 211 789
e 211 791
e 211 830
e 211 832
e 211 867
e 211 886
e 211 905
e 211 922
e 211 929
e 211 958
e 211 977
e 212 252
e 212 267
e 212 331
e 212 361
e 212 362
e 212 483
e 212 536
e 212 542
e 212 629
e 212 632
e 212 648
e 212 708
e 212 732
e 212 742
e 212 757
e 212 778
e 212 791
e 212 809
e 212 850
e 212 886
e 212 891
e 212 932
e 212 948
e 213 273
e 213 394
e 213 439
e 213 471
e 213 486
e 213 506
e 213 548
e 213 587
e 213 591
e 213 634
e 213 659
e 213 690
e 213 722
e 213 793
e 213 851
e 213 889
e 213 899
e 213 910
e 213 958
e 213 976
e 213 997
e 214 319
e 214 375
e 214 420
e 214 453
e 214 498
e 214 542
e 214 589
e 214 622
e 214 713
e 214 749
e 214 783
e 214 788
e 214 791
e 214 799
e 214 843
e 214 861
e 214 891
e 214 895
e 214 912
e 214 918
e 214 971
e 214 993
e 215 299
e 215 315
e 215 352
e 215 372
e 215 395
e 215 432
e 215 433
e 215 466
e 215 508
e 215 512
e 215 534
e 215 593
e 215 607
e 215 636
e 215 677
e 215 684
e 215 686
e 215 736
e 215 778
e 215 787
e 215 789
e 215 792
e 215 798
e 215 804
e 215 853
e 215 883
e 215 889
e 215 917
e 215 926
e 215 930
e 215 956
e 215 999
e 216 257
e 216 320
e 216 331
e 216 358
e 216 526
e 216 548
e 216 594
e 216 603
e 216 660
e 216 664
e 216 734
e 216 737
e 216 746
e 216 770
e 216 787
e 216 805
e 216 812
e 216 903
e 216 968
e 216 970
e 217 256
e 217 295
e 217 329
e 217 331
e 217 475
e 217 478
e 217 540
e 217 575
e 217 645
e 217 651
e 217 676
e 217 679
e 217 693
e 217 721
e 217 741
e 217 754
e 217 764
e 217 767
e 217 779
e 217 782
e 217 809
e 217 930
e 217 943
e 218 286
e 218 335
e 218 356
e 218 363
e 218 365
e 218 373
e 218 398
e 218 471
e 218 507
e 218 517
e 218 518
e 218 554
e 218 617
e 218 645
e 218 689
e 218 698
e 218 705
e 218 784
e 218 804
e 218 806
e 218 843
e 218 860
e 218 888
e 218 896
e 218 962
e 218 965
e 218 979
e 219 253
e 219 268
e 219 300
e 219 338
e 219 403
e 219 411
e 219 416
e 219 437
e 219 564
e 219 623
e 219 684
e 219 717
e 219 718
e 219 719
e 219 723
e 219 729
e 219 773
e 219 774
e 219 787
e 219 799
e 219 805
e 219 863
e 219 875
e 219 878
e 219 920
e 219 923
e 220 276
e 220 294
e 220 301
e 220 377
e 220 409
e 220 416
e 220 438
e 220 516
e 220 541
e 220 550
e 220 586
e 220 615
e 220 621
e 220 636
e 220 638
e 220 720
e 220 739
e 220 807
e 220 867
e 220 875
e 220 892
e 220 901
e 220 914
e 220 920
e 220 965
e 220 988
e 221 266
e 221 273
e 221 364
e 221 423
e 221 435
e 221 460
e 221 560
e 221 570
e 221 581
e 221 586
e 221 611
e 221 618
e 221 626
e 221 700
e 221 774
e 221 828
e 221 834
e 221 907
e 221 937
e 221 957
e 221 969
e 221 971
e 221 989
e 221 994
e 221 995
e 222 276
e 222 299
e 222 311
e 222 383
e 222 403
e 222 424
e 222 430
e 222 457
e 222 468
e 222 626
e 222 639
e 222 760
e 222 794
e 222 805
e 222 817
e 222 819
e 222 902
e 222 906
e 222 938
e 222 966
e 223 298
e 223 396
e 223 408
e 223 414
e 223 428
e 223 476
e 223 494
e 223 536
e 223 633
e 223 636
e 223 640
e 223 650
e 223 651
e 223 667
e 223 679
e 223 694
e 223 724
e 223 751
e 223 766
e 223 856
e 223 872
e 223 882
e 223 898
e 223 943
e 223 959
e 223 974
e 223 987
e 224 269
e 224 283
e 224 347
e 224 460
e 224 462
e 224 551
e 224 606
e 224 650
e 224 691
e 224 709
e 224 730
e 224 777
e 224 856
e 224 915
e 224 968
e 225 301
e 225 315
e 225 342
e 225 343
e 225 420
e 225 422
e 225 438
e 225 486
e 225 511
e 225 542
e 225 557
e 225 588
e 225 596
e 225 670
e 225 708
e 225 718
e 225 720
e 225 745
e 225 761
e 225 791
e 225 874
e 225 876
e 225 954
e 225 983
e 225 998
e 226 270
e 226 304
e 226 351
e 226 420
e 226 444
e 226 457
e 226 496
e 226 539
e 226 544
e 226 570
e 226 608
e 226 643
e 226 648
e 226 683
e 226 712
e 226 727
e 226 747
e 226 762
e 226 772
e 226 801
e 226 860
e 226 890
e 226 916
e 226 976
e 226 992
e 227 295
e 227 305
e 227 351
e 227 359
e 227 407
e 227 485
e 227 504
e 227 602
e 227 627
e 227 661
e 227 726
e 227 752
e 227 803
e 227 866
e 227 927
e 227 988
e 228 289
e 228 323
e 228 359
e 228 393
e 228 413
e 228 539
e 228 577
e 228 583
e 228 595
e 228 608
e 228 612
e 228 622
e 228 634
e 228 661
e 228 669
e 228 690
e 228 720
e 228 751
e 228 774
e 228 783
e 228 794
e 228 817
e 228 826
e 228 852
e 228 905
e 228 936
e 228 944
e 228 945
e 228 973
e 229 257
e 229 305
e 229 347
e 229 354
e 229 409
e 229 517
e 229 528
e 229 593
e 229 665
e 229 687
e 229 694
e 229 711
e 229 762
e 229 772
e 229 820
e 229 876
e 229 886
e 229 889
e 229 917
e 229 930
e 229 977
e 229 980
e 230 276
e 230 284
e 230 305
e 230 313
e 230 359
e 230 368
e 230 377
e 230 385
e 230 386
e 230 424
e 230 525
e 230 596
e 230 667
e 230 675
e 230 688
e 230 818
e 230 826
e 230 864
e 230 866
e 230 882
e 230 889
e 230 905
e 230 942
e 231 258
e 231 294
e 231 316
e 231 342
e 231 348
e 231 377
e 231 382
e 231 414
e 231 430
e 231 486
e 231 583
e 231 613
e 231 670
e 231 693
e 231 696
e 231 698
e 231 723
e 231 736
e 231 738
e 231 788
e 231 789
e 231 889
e 231 914
e 231 921
e 232 291
e 232 322
e 232 337
e 232 343
e 232 348
e 232 400
e 232 438
e 232 470
e 232 473
e 232 482
e 232 552
e 232 577
e 232 636
e 232 656
e 232 666
e 232 671
e 232 685
e 232 702
e 232 711
e 232 717
e 232 738
e 232 741
e 232 786
e 232 800
e 232 808
e 232 824
e 232 876
e 232 892
e 232 938
e 232 959
e 232 971
e 232 998
e 233 259
e 233 267
e 233 308
e 233 363
e 233 364
e 233 459
e 233 535
e 233 546
e 233 559
e 233 592
e 233 595
e 233 623
e 233 740
e 233 797
e 233 855
e 233 928
e 234 282
e 234 327
e 234 364
e 234 431
e 234 511
e 234 544
e 234 559
e 234 562
e 234 601
e 234 623
e 234 703
e 234 725
e 234 790
e 234 849
e 234 919
e 234 921
e 234 948
e 235 262
e 235 283
e 235 290
e 235 385
e 235 422
e 235 443
e 235 471
e 235 492
e 235 512
e 235 515
e 235 572
e 235 574
e 235 610
e 235 649
e 235 657
e 235 684
e 235 695
e 235 704
e 235 731
e 235 748
e 235 893
e 235 903
e 235 921
e 235 951
e 236 339
e 236 404
e 236 416
e 236 418
e 236 421
e 236 488
e 236 502
e 236 521
e 236 560
e 236 659
e 236 715
e 236 724
e 236 735
e 236 800
e 236 813
e 236 846
e 236 872
e 236 880
e 236 883
e 236 897
e 236 952
e 236 997
e 237 258
e 237 273
e 237 402
e 237 418
e 237 441
e 237 539
e 237 569
e 237 707
e 237 729
e 237 744
e 237 848
e 237 857
e 237 860
e 237 924
e 237 952
e 237 960
e 237 979
e 237 981
e 238 264
e 238 274
e 238 278
e 238 283
e 238 286
e 238 319
e 238 349
e 238 368
e 238 385
e 238 431
e 238 437
e 238 465
e 238 481
e 238 502
e 238 503
e 238 550
e 238 556
e 238 569
e 238 587
e 238 598
e 238 603
e 238 606
e 238 609
e 238 614
e 238 657
e 238 673
e 238 728
e 238 770
e 238 807
e 238 818
e 238 829
e 238 873
e 238 926
e 238 927
e 238 970
e 238 972
e 238 996
e 239 259
e 239 306
e 239 336
e 239 357
e 239 388
e 239 435
e 239 442
e 239 460
e 239 463
e 239 469
e 239 477
e 239 486
e 239 533
e 239 548
e 239 657
e 239 711
e 239 771
e 239 783
e 239 821
e 239 826
e 239 832
e 239 833
e 239 846
e 240 286
e 240 302
e 240 320
e 240 341
e 240 351
e 240 357
e 240 375
e 240 412
e 240 464
e 240 494
e 240 512
e 240 519
e 240 552
e 240 636
e 240 676
e 240 678
e 240 694
e 240 699
e 240 710
e 240 732
e 240 749
e 240 773
e 240 831
e 240 842
e 240 979
e 241 298
e 241 309
e 241 338
e 241 351
e 241 397
e 241 417
e 241 430
e 241 455
e 241 523
e 241 547
e 241 614
e 241 637
e 241 651
e 241 653
e 241 737
e 241 778
e 241 833
e 241 860
e 241 874
e 241 894
e 241 914
e 241 918
e 242 280
e 242 326
e 242 404
e 242 439
e 242 445
e 242 453
e 242 482
e 242 559
e 242 603
e 242 653
e 242 724
e 242 739
e 242 752
e 242 851
e 242 896
e 242 922
e 242 934
e 242 959
e 242 983
e 243 257
e 243 265
e 243 267
e 243 368
e 243 369
e 243 408
e 243 453
e 243 491
e 243 548
e 243 560
e 243 581
e 243 600
e 243 602
e 243 639
e 243 822
e 243 854
e 244 251
e 244 260
e 244 282
e 244 298
e 244 328
e 244 329
e 244 465
e 244 468
e 244 496
e 244 501
e 244 513
e 244 528
e 244 661
e 244 669
e 244 706
e 244 715
e 244 763
e 244 840
e 244 992
e 244 997
e 245 264
e 245 269
e 245 274
e 245 294
e 245 380
e 245 389
e 245 453
e 245 481
e 245 539
e 245 545
e 245 613
e 245 629
e 245 652
e 245 675
e 245 677
e 245 728
e 245 753
e 245 808
e 245 830
e 245 897
e 245 925
e 245 927
e 245 935
e 246 262
e 246 269
e 246 301
e 246 323
e 246 367
e 246 413
e 246 419
e 246 423
e 246 426
e 246 440
e 246 458
e 246 468
e 246 514
e 246 579
e 246 654
e 246 749
e 246 753
e 246 772
e 246 800
e 246 870
e 246 887
e 246 890
e 246 925
e 246 946
e 247 270
e 247 291
e 247 365
e 247 388
e 247 482
e 247 500
e 247 532
e 247 547
e 247 561
e 247 586
e 247 628
e 247 631
e 247 640
e 247 679
e 247 684
e 247 743
e 247 754
e 247 781
e 247 786
e 247 791
e 247 815
e 247 835
e 247 866
e 247 927
e 247 939
e 247 945
e 247 964
e 247 973
e 248 331
e 248 359
e 248 372
e 248 390
e 248 409
e 248 446
e 248 537
e 248 553
e 248 603
e 248 664
e 248 684
e 248 703
e 248 711
e 248 737
e 248 766
e 248 794
e 248 798
e 248 910
e 248 977
e 249 342
e 249 397
e 249 442
e 249 475
e 249 526
e 249 555
e 249 597
e 249 599
e 249 604
e 249 605
e 249 610
e 249 622
e 249 636
e 249 642
e 249 655
e 249 674
e 249 710
e 249 808
e 249 846
e 249 908
e 249 916
e 249 931
e 249 939
e 250 308
e 250 375
e 250 438
e 250 520
e 250 571
e 250 591
e 250 624
e 250 626
e 250 660
e 250 704
e 250 779
e 250 798
e 250 812
e 250 838
e 250 854
e 250 929
e 250 972
