p edge 1000 9269
e 1 281
e 1 285
e 1 308
e 1 365
e 1 368
e 1 401
e 1 412
e 1 435
e 1 458
e 1 487
e 1 491
e 1 502
e 1 513
e 1 520
e 1 522
e 1 533
e 1 551
e 1 581
e 1 582
e 1 586
e 1 598
e 1 601
e 1 659
e 1 662
e 1 673
e 1 688
e 1 697
e 1 728
e 1 732
e 1 733
e 1 769
e 1 771
e 1 792
e 1 832
e 1 833
e 1 841
e 1 865
e 1 873
e 1 907
e 1 947
e 1 997
e 2 276
e 2 283
e 2 292
e 2 302
e 2 367
e 2 401
e 2 427
e 2 443
e 2 472
e 2 486
e 2 506
e 2 524
e 2 534
e 2 595
e 2 624
e 2 631
e 2 658
e 2 704
e 2 731
e 2 732
e 2 751
e 2 761
e 2 795
e 2 866
e 2 873
e 2 876
e 2 906
e 2 943
e 3 263
e 3 267
e 3 277
e 3 286
e 3 322
e 3 326
e 3 338
e 3 347
e 3 353
e 3 407
e 3 433
e 3 434
e 3 473
e 3 480
e 3 525
e 3 529
e 3 549
e 3 562
e 3 579
e 3 668
e 3 678
e 3 700
e 3 711
e 3 744
e 3 761
e 3 766
e 3 827
e 3 843
e 3 887
e 3 905
e 3 906
e 3 915
e 3 928
e 3 954
e 3 958
e 3 959
e 3 964
e 3 995
e 3 996
e 4 257
e 4 269
e 4 284
e 4 304
e 4 328
e 4 355
e 4 472
e 4 482
e 4 496
e 4 505
e 4 521
e 4 524
e 4 565
e 4 586
e 4 589
e 4 596
e 4 613
e 4 632
e 4 635
e 4 669
e 4 681
e 4 715
e 4 723
e 4 726
e 4 737
e 4 830
e 4 845
e 4 878
e 4 884
e 4 888
e 4 912
e 4 918
e 4 930
e 4 938
e 4 967
e 4 989
e 4 990
e 4 996
e 5 267
e 5 270
e 5 287
e 5 316
e 5 337
e 5 404
e 5 423
e 5 430
e 5 484
e 5 542
e 5 554
e 5 580
e 5 632
e 5 661
e 5 668
e 5 693
e 5 715
e 5 720
e 5 721
e 5 722
e 5 741
e 5 742
e 5 753
e 5 810
e 5 830
e 5 863
e 5 867
e 5 915
e 5 963
e 6 268
e 6 283
e 6 313
e 6 331
e 6 356
e 6 364
e 6 437
e 6 449
e 6 467
e 6 477
e 6 500
e 6 569
e 6 577
e 6 608
e 6 629
e 6 723
e 6 755
e 6 770
e 6 873
e 6 929
e 6 930
e 6 943
e 6 948
e 6 970
e 6 998
e 6 1000
e 7 257
e 7 263
e 7 304
e 7 314
e 7 324
e 7 346
e 7 411
e 7 428
e 7 429
e 7 432
e 7 434
e 7 436
e 7 469
e 7 488
e 7 503
e 7 515
e 7 521
e 7 612
e 7 614
e 7 631
e 7 650
e 7 696
e 7 710
e 7 712
e 7 714
e 7 717
e 7 733
e 7 740
e 7 745
e 7 756
e 7 763
e 7 779
e 7 831
e 7 876
e 7 891
e 7 911
e 7 942
e 7 944
e 7 953
e 7 974
e 8 271
e 8 282
e 8 338
e 8 404
e 8 443
e 8 455
e 8 509
e 8 527
e 8 577
e 8 593
e 8 605
e 8 609
e 8 620
e 8 640
e 8 655
e 8 666
e 8 677
e 8 697
e 8 721
e 8 722
e 8 726
e 8 769
e 8 793
e 8 829
e 8 860
e 8 909
e 8 953
e 8 961
e 8 963
e 9 269
e 9 330
e 9 368
e 9 401
e 9 423
e 9 439
e 9 443
e 9 456
e 9 457
e 9 471
e 9 483
e 9 487
e 9 494
e 9 559
e 9 618
e 9 619
e 9 636
e 9 658
e 9 686
e 9 703
e 9 711
e 9 757
e 9 783
e 9 794
e 9 800
e 9 830
e 9 839
e 9 849
e 9 858
e 9 862
e 9 864
e 9 911
e 9 928
e 9 930
e 9 975
e 9 981
e 10 293
e 10 295
e 10 299
e 10 303
e 10 305
e 10 325
e 10 328
e 10 329
e 10 332
e 10 343
e 10 361
e 10 363
e 10 364
e 10 379
e 10 495
e 10 511
e 10 512
e 10 565
e 10 569
e 10 595
e 10 675
e 10 694
e 10 713
e 10 714
e 10 716
e 10 717
e 10 721
e 10 748
e 10 749
e 10 802
e 10 840
e 10 843
e 10 881
e 10 906
e 10 928
e 10 937
e 10 950
e 10 959
e 10 980
e 11 256
e 11 268
e 11 270
e 11 294
e 11 301
e 11 321
e 11 333
e 11 381
e 11 449
e 11 467
e 11 482
e 11 531
e 11 550
e 11 558
e 11 569
e 11 570
e 11 631
e 11 653
e 11 655
e 11 664
e 11 710
e 11 736
e 11 750
e 11 753
e 11 759
e 11 782
e 11 787
e 11 790
e 11 807
e 11 842
e 11 864
e 11 866
e 11 893
e 11 934
e 11 959
e 11 969
e 12 252
e 12 283
e 12 323
e 12 325
e 12 330
e 12 340
e 12 342
e 12 347
e 12 418
e 12 428
e 12 466
e 12 474
e 12 490
e 12 554
e 12 563
e 12 579
e 12 583
e 12 605
e 12 678
e 12 686
e 12 716
e 12 745
e 12 755
e 12 780
e 12 786
e 12 789
e 12 796
e 12 798
e 12 820
e 12 831
e 12 857
e 12 863
e 12 864
e 12 903
e 12 933
e 12 951
e 12 956
e 13 283
e 13 294
e 13 315
e 13 351
e 13 363
e 13 379
e 13 387
e 13 415
e 13 428
e 13 449
e 13 467
e 13 474
e 13 528
e 13 535
e 13 597
e 13 617
e 13 625
e 13 627
e 13 660
e 13 669
e 13 678
e 13 704
e 13 725
e 13 726
e 13 771
e 13 783
e 13 790
e 13 804
e 13 813
e 13 823
e 13 851
e 13 857
e 13 878
e 13 891
e 13 900
e 13 916
e 13 928
e 13 965
e 13 998
e 14 253
e 14 290
e 14 314
e 14 316
e 14 318
e 14 354
e 14 356
e 14 361
e 14 362
e 14 372
e 14 387
e 14 409
e 14 424
e 14 436
e 14 439
e 14 448
e 14 464
e 14 466
e 14 529
e 14 530
e 14 584
e 14 593
e 14 594
e 14 602
e 14 609
e 14 633
e 14 684
e 14 710
e 14 741
e 14 765
e 14 768
e 14 786
e 14 803
e 14 807
e 14 820
e 14 824
e 14 904
e 15 283
e 15 288
e 15 321
e 15 327
e 15 332
e 15 342
e 15 401
e 15 525
e 15 585
e 15 606
e 15 629
e 15 636
e 15 672
e 15 679
e 15 710
e 15 712
e 15 750
e 15 800
e 15 802
e 15 828
e 15 829
e 15 852
e 15 869
e 15 882
e 16 271
e 16 318
e 16 328
e 16 364
e 16 368
e 16 377
e 16 412
e 16 418
e 16 473
e 16 481
e 16 483
e 16 524
e 16 531
e 16 554
e 16 608
e 16 655
e 16 703
e 16 708
e 16 710
e 16 733
e 16 752
e 16 763
e 16 777
e 16 863
e 16 891
e 16 892
e 16 894
e 16 952
e 16 954
e 16 966
e 16 968
e 16 989
e 16 990
e 17 262
e 17 301
e 17 339
e 17 357
e 17 383
e 17 407
e 17 417
e 17 426
e 17 431
e 17 433
e 17 457
e 17 472
e 17 487
e 17 494
e 17 523
e 17 533
e 17 548
e 17 559
e 17 575
e 17 592
e 17 631
e 17 684
e 17 752
e 17 757
e 17 764
e 17 771
e 17 787
e 17 798
e 17 802
e 17 813
e 17 829
e 17 842
e 17 857
e 17 863
e 17 929
e 17 941
e 17 957
e 17 971
e 17 980
e 18 272
e 18 309
e 18 323
e 18 343
e 18 349
e 18 390
e 18 397
e 18 419
e 18 440
e 18 475
e 18 476
e 18 501
e 18 588
e 18 592
e 18 613
e 18 654
e 18 660
e 18 662
e 18 664
e 18 665
e 18 690
e 18 693
e 18 698
e 18 714
e 18 722
e 18 775
e 18 789
e 18 790
e 18 794
e 18 813
e 18 837
e 18 871
e 18 885
e 18 890
e 18 912
e 18 918
e 18 920
e 18 928
e 18 930
e 18 998
e 18 999
e 19 252
e 19 259
e 19 268
e 19 349
e 19 358
e 19 434
e 19 458
e 19 499
e 19 514
e 19 537
e 19 538
e 19 546
e 19 556
e 19 585
e 19 667
e 19 671
e 19 678
e 19 690
e 19 694
e 19 700
e 19 712
e 19 713
e 19 744
e 19 748
e 19 753
e 19 756
e 19 766
e 19 774
e 19 786
e 19 807
e 19 811
e 19 822
e 19 845
e 19 852
e 19 857
e 19 895
e 19 915
e 19 926
e 19 936
e 19 990
e 20 296
e 20 308
e 20 313
e 20 349
e 20 359
e 20 384
e 20 392
e 20 402
e 20 488
e 20 491
e 20 500
e 20 508
e 20 515
e 20 522
e 20 537
e 20 543
e 20 544
e 20 562
e 20 571
e 20 640
e 20 694
e 20 711
e 20 727
e 20 763
e 20 771
e 20 815
e 20 830
e 20 846
e 20 855
e 20 858
e 20 870
e 20 887
e 20 897
e 20 911
e 20 956
e 20 968
e 20 996
e 21 264
e 21 284
e 21 295
e 21 313
e 21 342
e 21 365
e 21 374
e 21 398
e 21 403
e 21 411
e 21 414
e 21 421
e 21 423
e 21 498
e 21 527
e 21 536
e 21 573
e 21 578
e 21 582
e 21 584
e 21 625
e 21 643
e 21 655
e 21 670
e 21 672
e 21 692
e 21 700
e 21 724
e 21 733
e 21 753
e 21 799
e 21 840
e 21 859
e 21 865
e 21 867
e 21 910
e 21 928
e 21 966
e 21 973
e 22 260
e 22 263
e 22 287
e 22 295
e 22 302
e 22 305
e 22 375
e 22 402
e 22 451
e 22 457
e 22 484
e 22 494
e 22 496
e 22 522
e 22 554
e 22 573
e 22 577
e 22 648
e 22 668
e 22 678
e 22 761
e 22 809
e 22 823
e 22 826
e 22 833
e 22 867
e 22 900
e 22 923
e 22 925
e 22 944
e 22 976
e 23 272
e 23 313
e 23 327
e 23 347
e 23 367
e 23 376
e 23 384
e 23 403
e 23 418
e 23 431
e 23 438
e 23 445
e 23 451
e 23 460
e 23 500
e 23 508
e 23 537
e 23 547
e 23 548
e 23 626
e 23 627
e 23 638
e 23 641
e 23 656
e 23 658
e 23 674
e 23 703
e 23 706
e 23 718
e 23 720
e 23 790
e 23 828
e 23 844
e 23 846
e 23 856
e 23 866
e 23 870
e 23 917
e 23 926
e 23 961
e 23 967
e 23 982
e 24 308
e 24 315
e 24 330
e 24 336
e 24 342
e 24 392
e 24 452
e 24 483
e 24 493
e 24 506
e 24 511
e 24 534
e 24 545
e 24 570
e 24 595
e 24 637
e 24 644
e 24 673
e 24 675
e 24 686
e 24 688
e 24 715
e 24 724
e 24 816
e 24 858
e 24 868
e 24 871
e 24 875
e 24 903
e 24 904
e 24 908
e 24 923
e 24 939
e 24 941
e 24 963
e 24 966
e 25 253
e 25 289
e 25 293
e 25 297
e 25 320
e 25 328
e 25 342
e 25 345
e 25 383
e 25 402
e 25 429
e 25 446
e 25 475
e 25 482
e 25 530
e 25 538
e 25 558
e 25 593
e 25 598
e 25 610
e 25 653
e 25 667
e 25 674
e 25 705
e 25 726
e 25 728
e 25 729
e 25 732
e 25 738
e 25 756
e 25 824
e 25 871
e 25 895
e 25 916
e 25 923
e 25 945
e 25 951
e 25 961
e 26 251
e 26 257
e 26 270
e 26 276
e 26 283
e 26 345
e 26 377
e 26 378
e 26 396
e 26 400
e 26 404
e 26 405
e 26 456
e 26 469
e 26 493
e 26 495
e 26 497
e 26 530
e 26 555
e 26 602
e 26 615
e 26 632
e 26 649
e 26 672
e 26 674
e 26 705
e 26 716
e 26 721
e 26 727
e 26 736
e 26 785
e 26 789
e 26 802
e 26 817
e 26 824
e 26 825
e 26 833
e 26 863
e 26 892
e 26 901
e 26 907
e 26 909
e 26 911
e 26 926
e 26 944
e 26 958
e 26 979
e 26 986
e 27 270
e 27 286
e 27 295
e 27 304
e 27 312
e 27 318
e 27 320
e 27 326
e 27 331
e 27 340
e 27 347
e 27 415
e 27 417
e 27 422
e 27 439
e 27 558
e 27 560
e 27 572
e 27 574
e 27 580
e 27 585
e 27 598
e 27 603
e 27 679
e 27 687
e 27 697
e 27 698
e 27 738
e 27 766
e 27 773
e 27 790
e 27 796
e 27 810
e 27 900
e 27 924
e 27 945
e 27 946
e 27 980
e 27 982
e 27 994
e 28 265
e 28 284
e 28 295
e 28 329
e 28 376
e 28 378
e 28 390
e 28 408
e 28 409
e 28 469
e 28 474
e 28 518
e 28 526
e 28 536
e 28 537
e 28 556
e 28 560
e 28 575
e 28 589
e 28 602
e 28 609
e 28 663
e 28 667
e 28 692
e 28 727
e 28 738
e 28 740
e 28 807
e 28 873
e 28 880
e 28 890
e 28 901
e 28 906
e 28 920
e 28 937
e 28 957
e 28 962
e 28 965
e 28 981
e 28 996
e 29 254
e 29 294
e 29 343
e 29 361
e 29 382
e 29 414
e 29 424
e 29 444
e 29 449
e 29 463
e 29 472
e 29 499
e 29 510
e 29 564
e 29 565
e 29 574
e 29 591
e 29 617
e 29 629
e 29 630
e 29 668
e 29 693
e 29 714
e 29 775
e 29 798
e 29 813
e 29 819
e 29 824
e 29 838
e 29 890
e 29 925
e 29 948
e 29 988
e 30 257
e 30 258
e 30 308
e 30 345
e 30 347
e 30 350
e 30 377
e 30 387
e 30 400
e 30 458
e 30 479
e 30 538
e 30 543
e 30 570
e 30 623
e 30 647
e 30 648
e 30 727
e 30 735
e 30 746
e 30 747
e 30 765
e 30 804
e 30 820
e 30 822
e 30 840
e 30 861
e 30 884
e 30 888
e 30 894
e 30 932
e 30 949
e 30 983
e 30 992
e 31 254
e 31 271
e 31 272
e 31 277
e 31 280
e 31 284
e 31 310
e 31 341
e 31 349
e 31 358
e 31 360
e 31 388
e 31 425
e 31 542
e 31 562
e 31 570
e 31 599
e 31 634
e 31 650
e 31 674
e 31 678
e 31 688
e 31 697
e 31 701
e 31 743
e 31 746
e 31 803
e 31 816
e 31 843
e 31 855
e 31 887
e 31 961
e 32 271
e 32 275
e 32 305
e 32 329
e 32 375
e 32 415
e 32 435
e 32 438
e 32 536
e 32 540
e 32 545
e 32 608
e 32 621
e 32 623
e 32 635
e 32 638
e 32 669
e 32 680
e 32 721
e 32 737
e 32 752
e 32 764
e 32 766
e 32 767
e 32 788
e 32 794
e 32 802
e 32 831
e 32 833
e 32 838
e 32 842
e 32 848
e 32 855
e 32 875
e 32 891
e 32 907
e 32 908
e 32 910
e 32 912
e 32 930
e 32 944
e 32 945
e 32 951
e 32 954
e 32 964
e 32 969
e 32 980
e 32 988
e 33 258
e 33 330
e 33 355
e 33 394
e 33 395
e 33 504
e 33 546
e 33 577
e 33 581
e 33 619
e 33 634
e 33 645
e 33 734
e 33 735
e 33 753
e 33 760
e 33 775
e 33 789
e 33 792
e 33 868
e 33 871
e 33 874
e 33 881
e 33 894
e 33 954
e 33 971
e 33 985
e 34 258
e 34 278
e 34 282
e 34 287
e 34 290
e 34 304
e 34 312
e 34 346
e 34 390
e 34 404
e 34 407
e 34 428
e 34 439
e 34 448
e 34 450
e 34 459
e 34 480
e 34 484
e 34 485
e 34 497
e 34 516
e 34 525
e 34 526
e 34 542
e 34 546
e 34 574
e 34 620
e 34 655
e 34 696
e 34 717
e 34 731
e 34 755
e 34 800
e 34 820
e 34 842
e 34 843
e 34 846
e 34 852
e 34 874
e 34 884
e 34 934
e 34 946
e 34 986
e 34 991
e 35 370
e 35 384
e 35 412
e 35 441
e 35 457
e 35 459
e 35 483
e 35 520
e 35 540
e 35 576
e 35 583
e 35 611
e 35 612
e 35 616
e 35 625
e 35 630
e 35 633
e 35 675
e 35 676
e 35 687
e 35 694
e 35 744
e 35 854
e 35 866
e 35 871
e 35 908
e 35 955
e 35 959
e 35 966
e 35 982
e 36 333
e 36 346
e 36 359
e 36 403
e 36 419
e 36 433
e 36 456
e 36 460
e 36 510
e 36 516
e 36 594
e 36 621
e 36 632
e 36 633
e 36 634
e 36 656
e 36 663
e 36 705
e 36 715
e 36 740
e 36 766
e 36 782
e 36 840
e 36 849
e 36 867
e 36 905
e 36 908
e 36 922
e 36 937
e 36 953
e 36 959
e 36 987
e 37 318
e 37 330
e 37 359
e 37 377
e 37 449
e 37 466
e 37 483
e 37 524
e 37 545
e 37 587
e 37 604
e 37 605
e 37 619
e 37 684
e 37 717
e 37 734
e 37 743
e 37 765
e 37 792
e 37 794
e 37 801
e 37 804
e 37 822
e 37 873
e 37 900
e 37 908
e 37 917
e 37 953
e 37 977
e 38 252
e 38 266
e 38 269
e 38 289
e 38 293
e 38 312
e 38 322
e 38 337
e 38 385
e 38 398
e 38 424
e 38 431
e 38 435
e 38 462
e 38 473
e 38 484
e 38 497
e 38 509
e 38 524
e 38 530
e 38 566
e 38 579
e 38 584
e 38 616
e 38 631
e 38 638
e 38 646
e 38 685
e 38 749
e 38 785
e 38 837
e 38 862
e 38 867
e 38 872
e 38 912
e 38 914
e 38 937
e 38 950
e 38 975
e 38 977
e 38 983
e 38 998
e 39 251
e 39 275
e 39 298
e 39 301
e 39 313
e 39 354
e 39 362
e 39 393
e 39 473
e 39 474
e 39 479
e 39 481
e 39 527
e 39 542
e 39 572
e 39 583
e 39 600
e 39 627
e 39 721
e 39 762
e 39 791
e 39 801
e 39 824
e 39 825
e 39 853
e 39 868
e 39 888
e 39 894
e 39 896
e 39 909
e 39 929
e 39 953
e 39 970
e 39 982
e 40 301
e 40 335
e 40 342
e 40 350
e 40 384
e 40 392
e 40 412
e 40 449
e 40 468
e 40 475
e 40 514
e 40 534
e 40 579
e 40 581
e 40 587
e 40 598
e 40 666
e 40 741
e 40 747
e 40 752
e 40 770
e 40 777
e 40 792
e 40 805
e 40 848
e 40 880
e 40 931
e 40 976
e 40 980
e 41 259
e 41 263
e 41 264
e 41 291
e 41 302
e 41 303
e 41 314
e 41 390
e 41 392
e 41 402
e 41 500
e 41 561
e 41 572
e 41 580
e 41 586
e 41 655
e 41 661
e 41 676
e 41 679
e 41 681
e 41 682
e 41 709
e 41 716
e 41 721
e 41 730
e 41 759
e 41 777
e 41 783
e 41 848
e 41 854
e 41 871
e 41 911
e 41 945
e 41 947
e 41 956
e 41 970
e 41 976
e 42 278
e 42 293
e 42 294
e 42 321
e 42 323
e 42 325
e 42 361
e 42 374
e 42 375
e 42 401
e 42 429
e 42 447
e 42 452
e 42 460
e 42 463
e 42 468
e 42 470
e 42 526
e 42 541
e 42 550
e 42 556
e 42 570
e 42 589
e 42 599
e 42 612
e 42 624
e 42 626
e 42 696
e 42 725
e 42 731
e 42 735
e 42 740
e 42 741
e 42 751
e 42 753
e 42 757
e 42 760
e 42 765
e 42 776
e 42 779
e 42 789
e 42 798
e 42 887
e 42 888
e 42 913
e 42 924
e 43 261
e 43 284
e 43 300
e 43 373
e 43 431
e 43 435
e 43 524
e 43 538
e 43 551
e 43 573
e 43 585
e 43 638
e 43 639
e 43 679
e 43 709
e 43 717
e 43 728
e 43 741
e 43 799
e 43 803
e 43 898
e 43 905
e 43 920
e 43 924
e 43 972
e 43 983
e 43 992
e 44 277
e 44 286
e 44 313
e 44 332
e 44 374
e 44 399
e 44 404
e 44 415
e 44 419
e 44 456
e 44 458
e 44 460
e 44 467
e 44 470
e 44 513
e 44 528
e 44 582
e 44 597
e 44 642
e 44 658
e 44 665
e 44 695
e 44 703
e 44 723
e 44 725
e 44 744
e 44 771
e 44 801
e 44 813
e 44 825
e 44 843
e 44 913
e 44 933
e 44 935
e 44 946
e 45 251
e 45 312
e 45 314
e 45 356
e 45 376
e 45 396
e 45 397
e 45 400
e 45 405
e 45 406
e 45 413
e 45 450
e 45 459
e 45 469
e 45 477
e 45 488
e 45 531
e 45 533
e 45 548
e 45 560
e 45 567
e 45 576
e 45 587
e 45 601
e 45 604
e 45 630
e 45 635
e 45 686
e 45 687
e 45 712
e 45 726
e 45 747
e 45 765
e 45 766
e 45 793
e 45 806
e 45 810
e 45 814
e 45 824
e 45 844
e 45 882
e 45 911
e 45 940
e 45 950
e 45 961
e 45 964
e 45 972
e 46 263
e 46 270
e 46 303
e 46 309
e 46 319
e 46 396
e 46 426
e 46 457
e 46 470
e 46 472
e 46 477
e 46 507
e 46 517
e 46 534
e 46 565
e 46 579
e 46 583
e 46 638
e 46 648
e 46 728
e 46 731
e 46 742
e 46 759
e 46 760
e 46 764
e 46 773
e 46 813
e 46 823
e 46 850
e 46 932
e 46 936
e 46 956
e 46 991
e 47 264
e 47 275
e 47 316
e 47 352
e 47 362
e 47 367
e 47 384
e 47 399
e 47 431
e 47 442
e 47 455
e 47 458
e 47 502
e 47 520
e 47 540
e 47 543
e 47 606
e 47 611
e 47 616
e 47 633
e 47 665
e 47 669
e 47 680
e 47 705
e 47 778
e 47 792
e 47 800
e 47 820
e 47 896
e 47 918
e 47 919
e 47 955
e 47 956
e 47 965
e 47 973
e 47 986
e 47 994
e 48 258
e 48 278
e 48 289
e 48 298
e 48 302
e 48 326
e 48 327
e 48 328
e 48 340
e 48 344
e 48 388
e 48 393
e 48 468
e 48 523
e 48 542
e 48 592
e 48 612
e 48 616
e 48 645
e 48 647
e 48 669
e 48 673
e 48 693
e 48 707
e 48 777
e 48 778
e 48 781
e 48 796
e 48 839
e 48 866
e 48 903
e 48 904
e 48 988
e 48 999
e 49 254
e 49 270
e 49 283
e 49 292
e 49 311
e 49 338
e 49 385
e 49 394
e 49 400
e 49 425
e 49 433
e 49 445
e 49 453
e 49 459
e 49 501
e 49 519
e 49 564
e 49 573
e 49 616
e 49 620
e 49 631
e 49 693
e 49 700
e 49 752
e 49 782
e 49 786
e 49 813
e 49 824
e 49 834
e 49 842
e 49 850
e 49 853
e 49 873
e 49 915
e 49 930
e 50 264
e 50 271
e 50 273
e 50 285
e 50 319
e 50 356
e 50 359
e 50 374
e 50 380
e 50 405
e 50 441
e 50 453
e 50 464
e 50 486
e 50 488
e 50 517
e 50 552
e 50 605
e 50 609
e 50 616
e 50 628
e 50 638
e 50 655
e 50 664
e 50 698
e 50 710
e 50 711
e 50 718
e 50 736
e 50 756
e 50 763
e 50 799
e 50 833
e 50 843
e 50 864
e 50 887
e 50 929
e 50 930
e 50 931
e 50 982
e 51 255
e 51 281
e 51 284
e 51 301
e 51 349
e 51 373
e 51 404
e 51 410
e 51 415
e 51 433
e 51 436
e 51 450
e 51 465
e 51 471
e 51 548
e 51 556
e 51 563
e 51 575
e 51 577
e 51 596
e 51 604
e 51 641
e 51 643
e 51 645
e 51 662
e 51 668
e 51 680
e 51 716
e 51 730
e 51 759
e 51 831
e 51 833
e 51 856
e 51 899
e 51 913
e 51 920
e 52 257
e 52 262
e 52 281
e 52 291
e 52 303
e 52 309
e 52 389
e 52 392
e 52 403
e 52 413
e 52 421
e 52 440
e 52 462
e 52 468
e 52 484
e 52 533
e 52 587
e 52 609
e 52 618
e 52 639
e 52 658
e 52 661
e 52 663
e 52 671
e 52 672
e 52 673
e 52 676
e 52 695
e 52 737
e 52 747
e 52 750
e 52 764
e 52 812
e 52 848
e 52 850
e 52 871
e 52 875
e 52 883
e 52 903
e 52 943
e 52 988
e 52 998
e 53 273
e 53 289
e 53 330
e 53 384
e 53 423
e 53 440
e 53 448
e 53 450
e 53 520
e 53 524
e 53 649
e 53 661
e 53 675
e 53 679
e 53 680
e 53 751
e 53 756
e 53 770
e 53 784
e 53 785
e 53 820
e 53 833
e 53 862
e 53 890
e 53 904
e 53 978
e 54 263
e 54 419
e 54 431
e 54 470
e 54 479
e 54 521
e 54 570
e 54 571
e 54 608
e 54 690
e 54 703
e 54 709
e 54 739
e 54 790
e 54 837
e 54 844
e 54 860
e 54 862
e 54 863
e 54 866
e 54 869
e 54 876
e 54 886
e 54 908
e 54 923
e 54 934
e 54 972
e 54 985
e 54 988
e 55 252
e 55 303
e 55 313
e 55 353
e 55 371
e 55 400
e 55 437
e 55 457
e 55 464
e 55 479
e 55 509
e 55 512
e 55 525
e 55 576
e 55 584
e 55 598
e 55 613
e 55 647
e 55 670
e 55 684
e 55 712
e 55 721
e 55 763
e 55 815
e 55 832
e 55 836
e 55 875
e 55 921
e 55 949
e 55 956
e 55 957
e 55 958
e 55 968
e 55 974
e 55 975
e 55 985
e 55 990
e 55 996
e 56 253
e 56 286
e 56 344
e 56 354
e 56 368
e 56 376
e 56 392
e 56 399
e 56 404
e 56 428
e 56 481
e 56 483
e 56 492
e 56 495
e 56 513
e 56 535
e 56 544
e 56 548
e 56 551
e 56 588
e 56 590
e 56 662
e 56 664
e 56 701
e 56 722
e 56 728
e 56 773
e 56 805
e 56 822
e 56 836
e 56 837
e 56 844
e 56 872
e 56 899
e 56 940
e 56 946
e 57 281
e 57 289
e 57 292
e 57 322
e 57 344
e 57 348
e 57 386
e 57 440
e 57 442
e 57 463
e 57 484
e 57 514
e 57 530
e 57 550
e 57 554
e 57 559
e 57 599
e 57 621
e 57 631
e 57 655
e 57 683
e 57 689
e 57 695
e 57 729
e 57 764
e 57 796
e 57 821
e 57 826
e 57 844
e 57 854
e 57 874
e 57 876
e 57 909
e 57 913
e 57 944
e 57 945
e 57 952
e 57 1000
e 58 283
e 58 318
e 58 321
e 58 322
e 58 369
e 58 393
e 58 412
e 58 419
e 58 426
e 58 427
e 58 450
e 58 494
e 58 521
e 58 534
e 58 586
e 58 596
e 58 604
e 58 639
e 58 647
e 58 674
e 58 681
e 58 693
e 58 716
e 58 744
e 58 767
e 58 787
e 58 790
e 58 797
e 58 825
e 58 835
e 58 852
e 58 862
e 58 902
e 58 906
e 58 918
e 58 924
e 58 938
e 58 944
e 58 976
e 58 986
e 59 263
e 59 268
e 59 269
e 59 314
e 59 349
e 59 354
e 59 356
e 59 393
e 59 407
e 59 415
e 59 435
e 59 468
e 59 473
e 59 485
e 59 502
e 59 514
e 59 520
e 59 526
e 59 553
e 59 576
e 59 598
e 59 654
e 59 692
e 59 693
e 59 696
e 59 699
e 59 717
e 59 781
e 59 795
e 59 857
e 59 906
e 59 915
e 59 948
e 59 973
e 60 271
e 60 289
e 60 307
e 60 324
e 60 327
e 60 353
e 60 374
e 60 423
e 60 452
e 60 477
e 60 482
e 60 499
e 60 503
e 60 539
e 60 561
e 60 568
e 60 576
e 60 619
e 60 624
e 60 653
e 60 671
e 60 693
e 60 700
e 60 717
e 60 729
e 60 731
e 60 736
e 60 760
e 60 762
e 60 799
e 60 803
e 60 840
e 60 847
e 60 868
e 60 883
e 60 947
e 61 257
e 61 285
e 61 362
e 61 379
e 61 391
e 61 426
e 61 477
e 61 490
e 61 590
e 61 621
e 61 627
e 61 634
e 61 645
e 61 670
e 61 685
e 61 687
e 61 694
e 61 709
e 61 715
e 61 752
e 61 781
e 61 801
e 61 809
e 61 810
e 61 824
e 61 825
e 61 831
e 61 838
e 61 867
e 61 879
e 61 883
e 61 897
e 61 904
e 61 914
e 61 921
e 61 946
e 61 972
e 62 256
e 62 265
e 62 292
e 62 314
e 62 332
e 62 339
e 62 346
e 62 363
e 62 383
e 62 397
e 62 414
e 62 433
e 62 523
e 62 525
e 62 526
e 62 541
e 62 551
e 62 580
e 62 590
e 62 598
e 62 616
e 62 621
e 62 674
e 62 708
e 62 713
e 62 729
e 62 737
e 62 782
e 62 788
e 62 830
e 62 940
e 62 945
e 62 958
e 62 964
e 62 981
e 63 256
e 63 259
e 63 261
e 63 268
e 63 269
e 63 284
e 63 288
e 63 289
e 63 308
e 63 334
e 63 349
e 63 359
e 63 363
e 63 388
e 63 408
e 63 414
e 63 415
e 63 433
e 63 436
e 63 452
e 63 481
e 63 512
e 63 517
e 63 549
e 63 565
e 63 581
e 63 597
e 63 607
e 63 610
e 63 613
e 63 644
e 63 678
e 63 712
e 63 714
e 63 715
e 63 770
e 63 784
e 63 813
e 63 816
e 63 827
e 63 845
e 63 867
e 63 881
e 63 890
e 64 265
e 64 279
e 64 292
e 64 301
e 64 305
e 64 324
e 64 325
e 64 347
e 64 349
e 64 352
e 64 386
e 64 443
e 64 453
e 64 454
e 64 458
e 64 463
e 64 502
e 64 505
e 64 545
e 64 564
e 64 570
e 64 611
e 64 637
e 64 660
e 64 665
e 64 668
e 64 692
e 64 720
e 64 757
e 64 772
e 64 784
e 64 796
e 64 800
e 64 820
e 64 829
e 64 842
e 64 848
e 64 858
e 64 900
e 64 906
e 64 916
e 64 919
e 64 937
e 64 950
e 64 951
e 64 983
e 64 992
e 65 281
e 65 287
e 65 305
e 65 308
e 65 310
e 65 334
e 65 363
e 65 385
e 65 406
e 65 471
e 65 497
e 65 509
e 65 535
e 65 553
e 65 556
e 65 566
e 65 569
e 65 582
e 65 625
e 65 633
e 65 664
e 65 667
e 65 677
e 65 694
e 65 697
e 65 704
e 65 720
e 65 728
e 65 754
e 65 823
e 65 889
e 65 922
e 65 939
e 66 259
e 66 280
e 66 298
e 66 335
e 66 376
e 66 394
e 66 410
e 66 414
e 66 503
e 66 518
e 66 566
e 66 567
e 66 610
e 66 618
e 66 629
e 66 644
e 66 651
e 66 670
e 66 678
e 66 738
e 66 748
e 66 803
e 66 813
e 66 837
e 66 854
e 66 863
e 66 893
e 66 943
e 66 952
e 67 279
e 67 350
e 67 403
e 67 473
e 67 523
e 67 537
e 67 538
e 67 574
e 67 579
e 67 587
e 67 592
e 67 614
e 67 626
e 67 633
e 67 638
e 67 667
e 67 690
e 67 701
e 67 735
e 67 767
e 67 781
e 67 783
e 67 805
e 67 823
e 67 830
e 67 832
e 67 849
e 67 852
e 67 887
e 67 892
e 67 922
e 67 936
e 67 988
e 67 998
e 68 266
e 68 313
e 68 323
e 68 324
e 68 364
e 68 371
e 68 409
e 68 485
e 68 487
e 68 508
e 68 540
e 68 542
e 68 554
e 68 585
e 68 626
e 68 669
e 68 671
e 68 676
e 68 686
e 68 693
e 68 718
e 68 723
e 68 724
e 68 762
e 68 783
e 68 798
e 68 824
e 68 876
e 68 888
e 68 889
e 68 917
e 68 923
e 68 945
e 68 958
e 68 991
e 69 255
e 69 270
e 69 303
e 69 305
e 69 307
e 69 311
e 69 333
e 69 366
e 69 394
e 69 397
e 69 407
e 69 449
e 69 463
e 69 471
e 69 483
e 69 497
e 69 539
e 69 561
e 69 623
e 69 638
e 69 643
e 69 655
e 69 679
e 69 705
e 69 732
e 69 782
e 69 859
e 69 882
e 69 886
e 69 902
e 69 919
e 69 929
e 69 957
e 69 966
e 69 973
e 69 995
e 70 255
e 70 256
e 70 290
e 70 334
e 70 359
e 70 414
e 70 428
e 70 442
e 70 447
e 70 507
e 70 518
e 70 538
e 70 572
e 70 592
e 70 596
e 70 599
e 70 603
e 70 608
e 70 613
e 70 622
e 70 666
e 70 718
e 70 733
e 70 734
e 70 765
e 70 795
e 70 806
e 70 827
e 70 855
e 70 865
e 70 883
e 70 916
e 70 948
e 70 951
e 70 981
e 71 273
e 71 277
e 71 296
e 71 325
e 71 326
e 71 346
e 71 354
e 71 376
e 71 381
e 71 399
e 71 439
e 71 456
e 71 474
e 71 495
e 71 503
e 71 515
e 71 537
e 71 558
e 71 569
e 71 613
e 71 617
e 71 623
e 71 637
e 71 651
e 71 680
e 71 694
e 71 707
e 71 737
e 71 764
e 71 791
e 71 796
e 71 815
e 71 823
e 71 826
e 71 838
e 71 843
e 71 873
e 71 903
e 71 917
e 71 935
e 71 958
e 71 972
e 71 994
e 72 278
e 72 295
e 72 297
e 72 302
e 72 327
e 72 376
e 72 396
e 72 441
e 72 449
e 72 454
e 72 457
e 72 464
e 72 470
e 72 538
e 72 560
e 72 572
e 72 593
e 72 617
e 72 644
e 72 652
e 72 660
e 72 671
e 72 698
e 72 700
e 72 711
e 72 715
e 72 736
e 72 758
e 72 792
e 72 800
e 72 812
e 72 833
e 72 845
e 72 860
e 72 866
e 72 880
e 72 907
e 72 925
e 72 954
e 73 261
e 73 286
e 73 298
e 73 306
e 73 333
e 73 336
e 73 348
e 73 365
e 73 368
e 73 391
e 73 459
e 73 546
e 73 580
e 73 583
e 73 641
e 73 668
e 73 679
e 73 706
e 73 752
e 73 760
e 73 762
e 73 773
e 73 784
e 73 814
e 73 853
e 73 997
e 74 279
e 74 285
e 74 297
e 74 326
e 74 397
e 74 412
e 74 415
e 74 460
e 74 496
e 74 504
e 74 512
e 74 546
e 74 547
e 74 558
e 74 564
e 74 582
e 74 623
e 74 628
e 74 637
e 74 643
e 74 644
e 74 659
e 74 697
e 74 704
e 74 735
e 74 746
e 74 747
e 74 767
e 74 782
e 74 801
e 74 851
e 74 912
e 74 920
e 74 952
e 74 969
e 74 988
e 75 263
e 75 289
e 75 305
e 75 389
e 75 392
e 75 409
e 75 413
e 75 432
e 75 445
e 75 457
e 75 464
e 75 507
e 75 523
e 75 526
e 75 527
e 75 534
e 75 541
e 75 555
e 75 613
e 75 669
e 75 710
e 75 728
e 75 738
e 75 772
e 75 775
e 75 784
e 75 818
e 75 846
e 75 859
e 75 874
e 75 875
e 75 879
e 75 938
e 75 946
e 75 972
e 75 984
e 76 263
e 76 265
e 76 266
e 76 284
e 76 301
e 76 335
e 76 364
e 76 375
e 76 392
e 76 406
e 76 439
e 76 448
e 76 449
e 76 467
e 76 503
e 76 520
e 76 530
e 76 574
e 76 590
e 76 621
e 76 672
e 76 824
e 76 825
e 76 841
e 76 850
e 76 862
e 76 891
e 76 901
e 76 913
e 76 932
e 76 961
e 76 983
e 77 265
e 77 275
e 77 291
e 77 295
e 77 313
e 77 322
e 77 331
e 77 332
e 77 352
e 77 368
e 77 390
e 77 407
e 77 433
e 77 517
e 77 530
e 77 534
e 77 589
e 77 592
e 77 631
e 77 634
e 77 650
e 77 657
e 77 677
e 77 687
e 77 698
e 77 707
e 77 741
e 77 758
e 77 765
e 77 790
e 77 795
e 77 810
e 77 836
e 77 866
e 77 869
e 77 889
e 77 891
e 77 893
e 77 895
e 77 933
e 77 941
e 77 947
e 78 257
e 78 268
e 78 280
e 78 284
e 78 289
e 78 291
e 78 302
e 78 311
e 78 316
e 78 317
e 78 320
e 78 332
e 78 362
e 78 373
e 78 408
e 78 420
e 78 475
e 78 492
e 78 493
e 78 597
e 78 604
e 78 611
e 78 620
e 78 630
e 78 644
e 78 665
e 78 691
e 78 755
e 78 777
e 78 797
e 78 809
e 78 854
e 78 868
e 78 876
e 78 878
e 78 882
e 78 903
e 78 919
e 78 978
e 78 999
e 79 294
e 79 298
e 79 335
e 79 349
e 79 355
e 79 380
e 79 385
e 79 402
e 79 411
e 79 415
e 79 429
e 79 461
e 79 495
e 79 502
e 79 535
e 79 624
e 79 640
e 79 663
e 79 666
e 79 693
e 79 702
e 79 705
e 79 706
e 79 710
e 79 740
e 79 766
e 79 776
e 79 824
e 79 829
e 79 865
e 79 884
e 80 256
e 80 259
e 80 313
e 80 319
e 80 341
e 80 349
e 80 373
e 80 380
e 80 398
e 80 445
e 80 471
e 80 485
e 80 502
e 80 510
e 80 515
e 80 548
e 80 550
e 80 589
e 80 594
e 80 614
e 80 623
e 80 628
e 80 656
e 80 699
e 80 710
e 80 744
e 80 793
e 80 812
e 80 829
e 80 833
e 80 884
e 80 927
e 80 930
e 80 932
e 80 955
e 80 961
e 81 254
e 81 258
e 81 272
e 81 329
e 81 396
e 81 406
e 81 415
e 81 419
e 81 463
e 81 485
e 81 491
e 81 493
e 81 508
e 81 526
e 81 532
e 81 538
e 81 539
e 81 553
e 81 555
e 81 582
e 81 584
e 81 607
e 81 668
e 81 688
e 81 708
e 81 736
e 81 750
e 81 760
e 81 771
e 81 805
e 81 813
e 81 851
e 81 895
e 81 933
e 81 944
e 81 986
e 82 259
e 82 315
e 82 322
e 82 331
e 82 382
e 82 385
e 82 389
e 82 393
e 82 405
e 82 419
e 82 477
e 82 499
e 82 502
e 82 506
e 82 531
e 82 630
e 82 657
e 82 673
e 82 682
e 82 701
e 82 748
e 82 793
e 82 798
e 82 890
e 82 891
e 82 900
e 82 943
e 83 252
e 83 254
e 83 265
e 83 339
e 83 353
e 83 379
e 83 395
e 83 397
e 83 408
e 83 410
e 83 411
e 83 412
e 83 424
e 83 445
e 83 473
e 83 477
e 83 480
e 83 490
e 83 497
e 83 502
e 83 528
e 83 535
e 83 551
e 83 553
e 83 564
e 83 628
e 83 637
e 83 653
e 83 654
e 83 678
e 83 719
e 83 733
e 83 784
e 83 799
e 83 815
e 83 821
e 83 836
e 83 875
e 83 908
e 83 929
e 83 947
e 83 952
e 83 971
e 84 253
e 84 272
e 84 301
e 84 312
e 84 314
e 84 330
e 84 334
e 84 341
e 84 343
e 84 355
e 84 362
e 84 375
e 84 377
e 84 386
e 84 390
e 84 400
e 84 522
e 84 524
e 84 656
e 84 658
e 84 676
e 84 678
e 84 700
e 84 705
e 84 724
e 84 783
e 84 785
e 84 791
e 84 814
e 84 839
e 84 896
e 84 932
e 84 940
e 84 950
e 84 951
e 84 953
e 84 960
e 84 964
e 84 973
e 85 265
e 85 309
e 85 366
e 85 374
e 85 385
e 85 417
e 85 443
e 85 458
e 85 459
e 85 478
e 85 572
e 85 576
e 85 631
e 85 647
e 85 680
e 85 682
e 85 686
e 85 692
e 85 707
e 85 720
e 85 723
e 85 802
e 85 804
e 85 809
e 85 812
e 85 817
e 85 824
e 85 839
e 85 853
e 85 879
e 85 887
e 85 889
e 85 941
e 85 959
e 85 991
e 85 996
e 86 256
e 86 275
e 86 279
e 86 299
e 86 332
e 86 336
e 86 364
e 86 378
e 86 397
e 86 414
e 86 416
e 86 418
e 86 432
e 86 434
e 86 444
e 86 448
e 86 463
e 86 468
e 86 475
e 86 495
e 86 518
e 86 553
e 86 579
e 86 583
e 86 586
e 86 594
e 86 605
e 86 632
e 86 680
e 86 685
e 86 703
e 86 731
e 86 734
e 86 739
e 86 751
e 86 795
e 86 796
e 86 806
e 86 821
e 86 874
e 86 928
e 86 958
e 86 971
e 86 983
e 87 254
e 87 262
e 87 392
e 87 405
e 87 443
e 87 459
e 87 460
e 87 462
e 87 464
e 87 469
e 87 481
e 87 491
e 87 499
e 87 501
e 87 509
e 87 518
e 87 541
e 87 579
e 87 596
e 87 608
e 87 649
e 87 655
e 87 678
e 87 704
e 87 707
e 87 722
e 87 780
e 87 810
e 87 847
e 87 853
e 87 917
e 87 939
e 87 943
e 87 1000
e 88 262
e 88 267
e 88 274
e 88 286
e 88 307
e 88 312
e 88 349
e 88 353
e 88 354
e 88 360
e 88 363
e 88 380
e 88 383
e 88 426
e 88 438
e 88 446
e 88 456
e 88 484
e 88 509
e 88 512
e 88 571
e 88 590
e 88 634
e 88 650
e 88 691
e 88 703
e 88 706
e 88 719
e 88 720
e 88 723
e 88 740
e 88 755
e 88 777
e 88 821
e 88 835
e 88 845
e 88 979
e 88 990
e 88 997
e 89 263
e 89 264
e 89 290
e 89 318
e 89 326
e 89 356
e 89 358
e 89 398
e 89 413
e 89 416
e 89 449
e 89 466
e 89 473
e 89 499
e 89 519
e 89 532
e 89 540
e 89 553
e 89 581
e 89 591
e 89 608
e 89 629
e 89 636
e 89 656
e 89 659
e 89 665
e 89 688
e 89 693
e 89 733
e 89 831
e 89 841
e 89 848
e 89 853
e 89 866
e 89 882
e 89 950
e 89 961
e 90 259
e 90 282
e 90 286
e 90 299
e 90 329
e 90 373
e 90 374
e 90 390
e 90 399
e 90 417
e 90 454
e 90 465
e 90 491
e 90 504
e 90 509
e 90 572
e 90 604
e 90 618
e 90 628
e 90 668
e 90 699
e 90 714
e 90 732
e 90 777
e 90 797
e 90 807
e 90 813
e 90 862
e 90 874
e 90 884
e 90 931
e 90 972
e 90 975
e 91 260
e 91 268
e 91 280
e 91 324
e 91 338
e 91 339
e 91 348
e 91 355
e 91 362
e 91 375
e 91 457
e 91 490
e 91 493
e 91 505
e 91 563
e 91 568
e 91 574
e 91 597
e 91 601
e 91 633
e 91 641
e 91 658
e 91 660
e 91 669
e 91 682
e 91 703
e 91 719
e 91 739
e 91 741
e 91 779
e 91 780
e 91 788
e 91 895
e 91 904
e 91 916
e 91 921
e 91 938
e 91 967
e 91 990
e 92 258
e 92 277
e 92 281
e 92 331
e 92 351
e 92 353
e 92 401
e 92 414
e 92 482
e 92 527
e 92 542
e 92 596
e 92 636
e 92 713
e 92 733
e 92 736
e 92 745
e 92 752
e 92 864
e 92 869
e 92 875
e 92 901
e 92 926
e 92 979
e 92 986
e 93 298
e 93 388
e 93 423
e 93 428
e 93 442
e 93 445
e 93 463
e 93 481
e 93 510
e 93 535
e 93 540
e 93 543
e 93 579
e 93 607
e 93 630
e 93 689
e 93 740
e 93 754
e 93 801
e 93 802
e 93 803
e 93 812
e 93 813
e 93 825
e 93 992
e 94 253
e 94 285
e 94 303
e 94 312
e 94 318
e 94 385
e 94 419
e 94 433
e 94 451
e 94 493
e 94 501
e 94 505
e 94 509
e 94 530
e 94 606
e 94 611
e 94 626
e 94 637
e 94 654
e 94 678
e 94 761
e 94 762
e 94 771
e 94 807
e 94 828
e 94 852
e 94 856
e 94 864
e 94 888
e 94 900
e 94 913
e 94 948
e 94 979
e 95 272
e 95 273
e 95 312
e 95 344
e 95 357
e 95 385
e 95 405
e 95 450
e 95 465
e 95 512
e 95 537
e 95 545
e 95 561
e 95 617
e 95 627
e 95 658
e 95 749
e 95 762
e 95 772
e 95 775
e 95 779
e 95 785
e 95 795
e 95 808
e 95 843
e 95 852
e 95 853
e 95 913
e 95 939
e 95 963
e 95 983
e 95 985
e 96 260
e 96 280
e 96 302
e 96 309
e 96 369
e 96 372
e 96 385
e 96 396
e 96 471
e 96 473
e 96 476
e 96 488
e 96 524
e 96 526
e 96 598
e 96 607
e 96 617
e 96 640
e 96 641
e 96 670
e 96 699
e 96 708
e 96 735
e 96 766
e 96 847
e 96 859
e 96 900
e 96 902
e 96 907
e 96 908
e 96 912
e 96 939
e 96 943
e 96 953
e 97 289
e 97 343
e 97 370
e 97 378
e 97 383
e 97 394
e 97 473
e 97 488
e 97 512
e 97 514
e 97 542
e 97 625
e 97 648
e 97 662
e 97 678
e 97 684
e 97 712
e 97 716
e 97 723
e 97 751
e 97 775
e 97 778
e 97 799
e 97 801
e 97 812
e 97 832
e 97 835
e 97 854
e 97 860
e 97 876
e 97 880
e 97 954
e 97 956
e 97 978
e 97 988
e 97 991
e 98 284
e 98 295
e 98 323
e 98 347
e 98 352
e 98 360
e 98 363
e 98 370
e 98 377
e 98 385
e 98 445
e 98 447
e 98 529
e 98 532
e 98 571
e 98 576
e 98 580
e 98 597
e 98 615
e 98 617
e 98 690
e 98 700
e 98 716
e 98 740
e 98 747
e 98 780
e 98 790
e 98 829
e 98 868
e 98 898
e 98 918
e 98 939
e 98 942
e 98 981
e 98 994
e 99 253
e 99 267
e 99 273
e 99 298
e 99 306
e 99 308
e 99 309
e 99 383
e 99 394
e 99 417
e 99 418
e 99 422
e 99 429
e 99 444
e 99 452
e 99 472
e 99 474
e 99 493
e 99 554
e 99 566
e 99 582
e 99 596
e 99 611
e 99 620
e 99 665
e 99 683
e 99 715
e 99 724
e 99 755
e 99 765
e 99 780
e 99 793
e 99 970
e 99 972
e 100 257
e 100 259
e 100 280
e 100 322
e 100 332
e 100 378
e 100 425
e 100 440
e 100 483
e 100 504
e 100 506
e 100 527
e 100 538
e 100 587
e 100 620
e 100 639
e 100 656
e 100 657
e 100 660
e 100 665
e 100 675
e 100 691
e 100 702
e 100 730
e 100 747
e 100 753
e 100 768
e 100 789
e 100 814
e 100 821
e 100 850
e 100 899
e 100 909
e 100 946
e 100 948
e 100 949
e 100 966
e 100 979
e 101 278
e 101 287
e 101 291
e 101 292
e 101 311
e 101 320
e 101 325
e 101 333
e 101 366
e 101 379
e 101 400
e 101 472
e 101 497
e 101 549
e 101 565
e 101 620
e 101 643
e 101 654
e 101 666
e 101 672
e 101 752
e 101 764
e 101 779
e 101 794
e 101 866
e 101 913
e 101 914
e 101 933
e 101 968
e 101 977
e 102 297
e 102 341
e 102 351
e 102 376
e 102 414
e 102 445
e 102 532
e 102 542
e 102 543
e 102 550
e 102 553
e 102 563
e 102 596
e 102 657
e 102 666
e 102 669
e 102 692
e 102 747
e 102 757
e 102 789
e 102 813
e 102 821
e 102 824
e 102 841
e 102 859
e 102 887
e 102 912
e 102 915
e 102 954
e 102 993
e 103 279
e 103 284
e 103 290
e 103 327
e 103 347
e 103 348
e 103 386
e 103 391
e 103 443
e 103 450
e 103 457
e 103 458
e 103 462
e 103 466
e 103 488
e 103 499
e 103 553
e 103 557
e 103 582
e 103 586
e 103 638
e 103 653
e 103 723
e 103 746
e 103 750
e 103 761
e 103 789
e 103 799
e 103 844
e 103 853
e 103 862
e 103 873
e 103 885
e 103 888
e 103 893
e 103 911
e 103 921
e 103 935
e 103 966
e 103 995
e 104 271
e 104 284
e 104 344
e 104 352
e 104 372
e 104 396
e 104 414
e 104 426
e 104 434
e 104 453
e 104 484
e 104 541
e 104 606
e 104 658
e 104 694
e 104 701
e 104 704
e 104 724
e 104 736
e 104 773
e 104 823
e 104 829
e 104 843
e 104 854
e 104 870
e 104 881
e 104 947
e 104 962
e 104 970
e 104 981
e 104 987
e 104 995
e 105 262
e 105 276
e 105 294
e 105 306
e 105 322
e 105 342
e 105 348
e 105 358
e 105 393
e 105 398
e 105 480
e 105 495
e 105 500
e 105 502
e 105 530
e 105 539
e 105 592
e 105 641
e 105 643
e 105 645
e 105 653
e 105 766
e 105 807
e 105 808
e 105 824
e 105 827
e 105 922
e 105 934
e 105 957
e 105 967
e 105 999
e 106 265
e 106 278
e 106 279
e 106 284
e 106 302
e 106 342
e 106 368
e 106 376
e 106 378
e 106 382
e 106 387
e 106 423
e 106 495
e 106 507
e 106 544
e 106 577
e 106 584
e 106 590
e 106 592
e 106 605
e 106 606
e 106 623
e 106 666
e 106 702
e 106 710
e 106 717
e 106 766
e 106 772
e 106 775
e 106 789
e 106 800
e 106 820
e 106 849
e 106 872
e 106 906
e 106 946
e 106 979
e 107 285
e 107 320
e 107 330
e 107 336
e 107 348
e 107 382
e 107 384
e 107 401
e 107 410
e 107 429
e 107 452
e 107 491
e 107 521
e 107 529
e 107 566
e 107 615
e 107 617
e 107 618
e 107 642
e 107 662
e 107 664
e 107 700
e 107 702
e 107 704
e 107 735
e 107 770
e 107 781
e 107 826
e 107 856
e 107 867
e 107 872
e 107 907
e 107 929
e 107 955
e 107 964
e 107 998
e 108 254
e 108 255
e 108 256
e 108 269
e 108 302
e 108 304
e 108 380
e 108 387
e 108 389
e 108 447
e 108 464
e 108 468
e 108 485
e 108 514
e 108 517
e 108 522
e 108 558
e 108 564
e 108 582
e 108 605
e 108 623
e 108 630
e 108 645
e 108 686
e 108 696
e 108 718
e 108 726
e 108 759
e 108 770
e 108 818
e 108 837
e 108 840
e 108 873
e 108 875
e 108 897
e 108 918
e 108 921
e 108 924
e 108 930
e 109 255
e 109 268
e 109 317
e 109 356
e 109 358
e 109 403
e 109 424
e 109 431
e 109 432
e 109 434
e 109 453
e 109 492
e 109 499
e 109 532
e 109 542
e 109 550
e 109 565
e 109 573
e 109 574
e 109 584
e 109 587
e 109 608
e 109 665
e 109 667
e 109 670
e 109 726
e 109 732
e 109 736
e 109 752
e 109 759
e 109 775
e 109 780
e 109 792
e 109 820
e 109 876
e 109 878
e 109 891
e 109 892
e 109 901
e 109 907
e 109 910
e 109 946
e 109 950
e 109 951
e 110 271
e 110 292
e 110 326
e 110 368
e 110 421
e 110 524
e 110 559
e 110 588
e 110 620
e 110 632
e 110 638
e 110 641
e 110 678
e 110 683
e 110 688
e 110 702
e 110 716
e 110 749
e 110 789
e 110 790
e 110 807
e 110 822
e 110 828
e 110 837
e 110 879
e 110 906
e 110 937
e 110 943
e 110 946
e 110 959
e 110 960
e 110 984
e 110 991
e 110 994
e 110 999
e 111 253
e 111 258
e 111 297
e 111 313
e 111 330
e 111 345
e 111 367
e 111 435
e 111 439
e 111 484
e 111 521
e 111 527
e 111 536
e 111 538
e 111 545
e 111 552
e 111 570
e 111 579
e 111 597
e 111 625
e 111 647
e 111 663
e 111 673
e 111 686
e 111 705
e 111 716
e 111 718
e 111 723
e 111 727
e 111 729
e 111 763
e 111 766
e 111 771
e 111 785
e 111 813
e 111 862
e 111 879
e 111 891
e 111 905
e 111 925
e 111 969
e 111 971
e 112 252
e 112 255
e 112 269
e 112 375
e 112 387
e 112 459
e 112 475
e 112 504
e 112 526
e 112 530
e 112 546
e 112 554
e 112 569
e 112 573
e 112 603
e 112 604
e 112 624
e 112 643
e 112 649
e 112 669
e 112 679
e 112 690
e 112 721
e 112 725
e 112 733
e 112 769
e 112 814
e 112 870
e 112 904
e 112 952
e 112 957
e 112 976
e 112 1000
e 113 257
e 113 297
e 113 317
e 113 367
e 113 380
e 113 389
e 113 393
e 113 399
e 113 428
e 113 442
e 113 444
e 113 458
e 113 463
e 113 470
e 113 480
e 113 557
e 113 569
e 113 575
e 113 601
e 113 635
e 113 637
e 113 659
e 113 686
e 113 702
e 113 705
e 113 717
e 113 727
e 113 731
e 113 748
e 113 786
e 113 808
e 113 856
e 113 866
e 113 873
e 113 890
e 113 919
e 113 923
e 113 930
e 113 938
e 113 940
e 113 951
e 113 983
e 113 985
e 114 258
e 114 303
e 114 321
e 114 332
e 114 341
e 114 373
e 114 375
e 114 424
e 114 470
e 114 472
e 114 480
e 114 490
e 114 498
e 114 501
e 114 537
e 114 582
e 114 586
e 114 600
e 114 660
e 114 661
e 114 664
e 114 672
e 114 692
e 114 700
e 114 703
e 114 729
e 114 746
e 114 749
e 114 763
e 114 781
e 114 786
e 114 821
e 114 858
e 114 891
e 114 894
e 114 920
e 114 925
e 114 937
e 114 958
e 114 969
e 114 987
e 114 1000
e 115 255
e 115 272
e 115 308
e 115 318
e 115 344
e 115 349
e 115 353
e 115 362
e 115 363
e 115 364
e 115 382
e 115 388
e 115 391
e 115 399
e 115 407
e 115 426
e 115 432
e 115 439
e 115 448
e 115 530
e 115 620
e 115 670
e 115 678
e 115 682
e 115 696
e 115 711
e 115 773
e 115 815
e 115 826
e 115 838
e 115 860
e 115 891
e 115 898
e 115 907
e 115 918
e 115 919
e 115 937
e 115 956
e 115 985
e 115 990
e 116 257
e 116 304
e 116 317
e 116 328
e 116 345
e 116 378
e 116 413
e 116 417
e 116 427
e 116 431
e 116 450
e 116 452
e 116 470
e 116 492
e 116 528
e 116 534
e 116 539
e 116 567
e 116 577
e 116 595
e 116 604
e 116 614
e 116 641
e 116 676
e 116 695
e 116 697
e 116 700
e 116 714
e 116 749
e 116 756
e 116 766
e 116 771
e 116 773
e 116 783
e 116 794
e 116 805
e 116 830
e 116 878
e 116 881
e 116 889
e 116 895
e 116 918
e 116 968
e 116 981
e 116 991
e 117 262
e 117 306
e 117 331
e 117 386
e 117 404
e 117 419
e 117 440
e 117 462
e 117 464
e 117 474
e 117 546
e 117 551
e 117 599
e 117 607
e 117 610
e 117 612
e 117 649
e 117 674
e 117 691
e 117 705
e 117 720
e 117 749
e 117 804
e 117 806
e 117 838
e 117 851
e 117 858
e 117 860
e 117 861
e 117 877
e 117 888
e 117 895
e 117 898
e 117 953
e 117 958
e 117 964
e 117 975
e 117 982
e 118 259
e 118 260
e 118 290
e 118 369
e 118 394
e 118 402
e 118 404
e 118 439
e 118 455
e 118 460
e 118 461
e 118 481
e 118 489
e 118 527
e 118 550
e 118 579
e 118 590
e 118 598
e 118 600
e 118 627
e 118 633
e 118 642
e 118 680
e 118 705
e 118 724
e 118 729
e 118 748
e 118 763
e 118 767
e 118 804
e 118 809
e 118 882
e 118 909
e 118 914
e 118 957
e 118 967
e 118 999
e 119 279
e 119 289
e 119 296
e 119 310
e 119 334
e 119 367
e 119 379
e 119 386
e 119 428
e 119 461
e 119 470
e 119 575
e 119 584
e 119 593
e 119 598
e 119 603
e 119 630
e 119 649
e 119 655
e 119 658
e 119 711
e 119 724
e 119 751
e 119 753
e 119 782
e 119 794
e 119 799
e 119 817
e 119 849
e 119 853
e 119 876
e 119 877
e 119 911
e 119 923
e 119 942
e 119 952
e 119 983
e 119 984
e 119 997
e 120 261
e 120 263
e 120 293
e 120 299
e 120 316
e 120 345
e 120 367
e 120 392
e 120 403
e 120 412
e 120 501
e 120 506
e 120 521
e 120 528
e 120 537
e 120 578
e 120 606
e 120 618
e 120 641
e 120 643
e 120 654
e 120 725
e 120 736
e 120 748
e 120 781
e 120 798
e 120 824
e 120 832
e 120 835
e 120 854
e 120 890
e 120 900
e 120 904
e 120 919
e 120 928
e 120 963
e 120 991
e 121 267
e 121 284
e 121 294
e 121 321
e 121 333
e 121 346
e 121 387
e 121 403
e 121 417
e 121 421
e 121 425
e 121 455
e 121 473
e 121 483
e 121 533
e 121 548
e 121 553
e 121 559
e 121 560
e 121 592
e 121 597
e 121 639
e 121 647
e 121 661
e 121 728
e 121 743
e 121 755
e 121 806
e 121 809
e 121 823
e 121 854
e 121 869
e 121 871
e 121 875
e 121 893
e 121 917
e 121 920
e 121 958
e 121 981
e 121 986
e 121 1000
e 122 255
e 122 324
e 122 337
e 122 340
e 122 347
e 122 387
e 122 393
e 122 417
e 122 419
e 122 423
e 122 427
e 122 436
e 122 440
e 122 452
e 122 469
e 122 501
e 122 565
e 122 572
e 122 588
e 122 622
e 122 662
e 122 712
e 122 716
e 122 718
e 122 730
e 122 761
e 122 767
e 122 784
e 122 806
e 122 811
e 122 812
e 122 829
e 122 855
e 122 856
e 122 875
e 122 889
e 122 901
e 122 903
e 122 918
e 122 959
e 122 992
e 122 995
e 123 255
e 123 261
e 123 284
e 123 347
e 123 353
e 123 419
e 123 428
e 123 451
e 123 455
e 123 459
e 123 467
e 123 496
e 123 543
e 123 548
e 123 560
e 123 576
e 123 590
e 123 598
e 123 657
e 123 659
e 123 685
e 123 699
e 123 700
e 123 727
e 123 736
e 123 761
e 123 770
e 123 800
e 123 814
e 123 852
e 123 885
e 123 894
e 123 895
e 123 901
e 123 921
e 123 961
e 123 992
e 124 388
e 124 392
e 124 402
e 124 434
e 124 442
e 124 445
e 124 454
e 124 472
e 124 478
e 124 486
e 124 501
e 124 505
e 124 552
e 124 606
e 124 637
e 124 643
e 124 662
e 124 664
e 124 685
e 124 726
e 124 730
e 124 734
e 124 747
e 124 792
e 124 807
e 124 826
e 124 828
e 124 833
e 124 836
e 124 849
e 124 941
e 124 960
e 124 966
e 124 981
e 124 999
e 125 284
e 125 293
e 125 325
e 125 350
e 125 356
e 125 379
e 125 417
e 125 423
e 125 486
e 125 492
e 125 496
e 125 576
e 125 602
e 125 605
e 125 629
e 125 679
e 125 692
e 125 710
e 125 714
e 125 723
e 125 727
e 125 755
e 125 757
e 125 762
e 125 765
e 125 777
e 125 780
e 125 816
e 125 827
e 125 867
e 125 884
e 125 888
e 125 918
e 125 932
e 125 938
e 125 941
e 125 958
e 125 974
e 125 976
e 125 994
e 126 265
e 126 274
e 126 296
e 126 312
e 126 339
e 126 349
e 126 379
e 126 414
e 126 444
e 126 447
e 126 453
e 126 459
e 126 468
e 126 475
e 126 481
e 126 492
e 126 502
e 126 570
e 126 585
e 126 590
e 126 646
e 126 649
e 126 703
e 126 769
e 126 834
e 126 862
e 126 872
e 126 875
e 126 886
e 126 888
e 126 908
e 127 260
e 127 262
e 127 289
e 127 330
e 127 333
e 127 334
e 127 368
e 127 381
e 127 382
e 127 389
e 127 391
e 127 393
e 127 396
e 127 398
e 127 407
e 127 444
e 127 474
e 127 475
e 127 509
e 127 516
e 127 521
e 127 533
e 127 538
e 127 540
e 127 544
e 127 559
e 127 581
e 127 638
e 127 657
e 127 664
e 127 681
e 127 683
e 127 688
e 127 714
e 127 734
e 127 746
e 127 762
e 127 764
e 127 801
e 127 847
e 127 849
e 127 881
e 127 894
e 127 900
e 127 906
e 127 911
e 127 916
e 127 921
e 127 924
e 127 926
e 127 959
e 127 965
e 127 969
e 127 982
e 127 992
e 127 1000
e 128 287
e 128 291
e 128 318
e 128 332
e 128 333
e 128 351
e 128 359
e 128 369
e 128 430
e 128 450
e 128 471
e 128 489
e 128 498
e 128 500
e 128 520
e 128 523
e 128 537
e 128 546
e 128 551
e 128 574
e 128 594
e 128 629
e 128 639
e 128 658
e 128 678
e 128 710
e 128 715
e 128 716
e 128 724
e 128 749
e 128 751
e 128 757
e 128 774
e 128 783
e 128 792
e 128 823
e 128 898
e 128 901
e 128 953
e 128 958
e 128 978
e 129 302
e 129 357
e 129 363
e 129 374
e 129 417
e 129 431
e 129 436
e 129 460
e 129 469
e 129 479
e 129 502
e 129 551
e 129 561
e 129 567
e 129 590
e 129 596
e 129 608
e 129 624
e 129 634
e 129 636
e 129 648
e 129 665
e 129 669
e 129 675
e 129 676
e 129 691
e 129 770
e 129 771
e 129 777
e 129 783
e 129 799
e 129 807
e 129 837
e 129 844
e 129 859
e 129 901
e 129 915
e 129 954
e 129 959
e 130 251
e 130 256
e 130 334
e 130 342
e 130 351
e 130 362
e 130 371
e 130 430
e 130 432
e 130 501
e 130 601
e 130 612
e 130 643
e 130 650
e 130 655
e 130 708
e 130 710
e 130 711
e 130 716
e 130 720
e 130 722
e 130 727
e 130 730
e 130 740
e 130 746
e 130 753
e 130 787
e 130 806
e 130 818
e 130 839
e 130 858
e 130 863
e 130 900
e 130 943
e 130 946
e 130 952
e 130 969
e 131 272
e 131 276
e 131 295
e 131 307
e 131 332
e 131 335
e 131 427
e 131 432
e 131 457
e 131 492
e 131 493
e 131 497
e 131 501
e 131 516
e 131 525
e 131 626
e 131 636
e 131 645
e 131 660
e 131 677
e 131 683
e 131 686
e 131 703
e 131 726
e 131 756
e 131 783
e 131 826
e 131 841
e 131 878
e 131 889
e 131 899
e 131 915
e 131 954
e 131 961
e 131 970
e 131 974
e 132 282
e 132 298
e 132 307
e 132 337
e 132 346
e 132 350
e 132 351
e 132 365
e 132 375
e 132 413
e 132 424
e 132 435
e 132 475
e 132 491
e 132 511
e 132 527
e 132 534
e 132 538
e 132 546
e 132 556
e 132 598
e 132 608
e 132 631
e 132 638
e 132 648
e 132 668
e 132 675
e 132 688
e 132 700
e 132 729
e 132 756
e 132 784
e 132 802
e 132 824
e 132 832
e 132 846
e 132 855
e 132 884
e 132 916
e 132 924
e 132 938
e 132 942
e 132 944
e 132 946
e 132 949
e 132 969
e 132 978
e 132 993
e 133 255
e 133 256
e 133 270
e 133 272
e 133 292
e 133 350
e 133 378
e 133 422
e 133 429
e 133 474
e 133 483
e 133 538
e 133 553
e 133 557
e 133 563
e 133 568
e 133 591
e 133 617
e 133 648
e 133 663
e 133 671
e 133 713
e 133 767
e 133 770
e 133 814
e 133 828
e 133 877
e 133 883
e 133 895
e 133 909
e 133 928
e 133 953
e 134 253
e 134 279
e 134 280
e 134 330
e 134 357
e 134 366
e 134 393
e 134 439
e 134 449
e 134 499
e 134 515
e 134 565
e 134 578
e 134 587
e 134 623
e 134 625
e 134 653
e 134 656
e 134 657
e 134 669
e 134 721
e 134 773
e 134 788
e 134 866
e 134 885
e 134 895
e 134 923
e 134 926
e 134 930
e 134 939
e 134 946
e 134 981
e 134 999
e 135 272
e 135 365
e 135 391
e 135 397
e 135 400
e 135 403
e 135 412
e 135 425
e 135 478
e 135 502
e 135 518
e 135 572
e 135 612
e 135 622
e 135 634
e 135 644
e 135 652
e 135 668
e 135 704
e 135 708
e 135 721
e 135 746
e 135 765
e 135 774
e 135 782
e 135 787
e 135 790
e 135 819
e 135 847
e 135 860
e 135 864
e 135 871
e 135 886
e 135 897
e 135 899
e 135 900
e 135 913
e 135 927
e 135 934
e 135 938
e 135 943
e 135 951
e 135 968
e 135 991
e 136 324
e 136 328
e 136 343
e 136 361
e 136 388
e 136 392
e 136 408
e 136 431
e 136 445
e 136 490
e 136 524
e 136 545
e 136 560
e 136 577
e 136 585
e 136 587
e 136 592
e 136 600
e 136 630
e 136 632
e 136 641
e 136 665
e 136 675
e 136 684
e 136 738
e 136 748
e 136 759
e 136 825
e 136 827
e 136 834
e 136 851
e 136 857
e 136 863
e 136 869
e 136 876
e 136 881
e 136 882
e 136 943
e 136 997
e 137 320
e 137 324
e 137 344
e 137 378
e 137 379
e 137 390
e 137 419
e 137 431
e 137 465
e 137 510
e 137 544
e 137 548
e 137 557
e 137 571
e 137 577
e 137 578
e 137 597
e 137 601
e 137 627
e 137 658
e 137 672
e 137 679
e 137 692
e 137 740
e 137 765
e 137 800
e 137 802
e 137 813
e 137 819
e 137 872
e 137 890
e 137 911
e 137 945
e 137 955
e 137 957
e 138 258
e 138 304
e 138 331
e 138 347
e 138 371
e 138 387
e 138 433
e 138 455
e 138 461
e 138 468
e 138 473
e 138 485
e 138 520
e 138 545
e 138 558
e 138 562
e 138 597
e 138 613
e 138 624
e 138 631
e 138 636
e 138 663
e 138 669
e 138 671
e 138 686
e 138 690
e 138 732
e 138 766
e 138 779
e 138 780
e 138 786
e 138 827
e 138 829
e 138 831
e 138 862
e 138 901
e 138 906
e 138 951
e 138 987
e 138 990
e 138 997
e 139 269
e 139 281
e 139 295
e 139 337
e 139 340
e 139 344
e 139 443
e 139 460
e 139 486
e 139 498
e 139 515
e 139 545
e 139 550
e 139 571
e 139 575
e 139 580
e 139 582
e 139 584
e 139 623
e 139 676
e 139 724
e 139 730
e 139 746
e 139 766
e 139 797
e 139 819
e 139 849
e 139 852
e 139 897
e 139 927
e 139 941
e 139 959
e 139 977
e 139 999
e 140 255
e 140 337
e 140 374
e 140 377
e 140 384
e 140 400
e 140 412
e 140 420
e 140 424
e 140 425
e 140 450
e 140 455
e 140 458
e 140 462
e 140 482
e 140 491
e 140 495
e 140 512
e 140 515
e 140 517
e 140 525
e 140 547
e 140 548
e 140 563
e 140 625
e 140 648
e 140 695
e 140 737
e 140 739
e 140 761
e 140 783
e 140 833
e 140 834
e 140 867
e 140 883
e 140 887
e 140 893
e 140 901
e 140 902
e 140 903
e 140 907
e 140 949
e 140 951
e 140 961
e 141 254
e 141 336
e 141 382
e 141 399
e 141 423
e 141 456
e 141 465
e 141 503
e 141 510
e 141 539
e 141 542
e 141 613
e 141 629
e 141 646
e 141 720
e 141 786
e 141 798
e 141 844
e 141 846
e 141 852
e 141 865
e 141 866
e 141 867
e 141 876
e 141 898
e 141 965
e 141 970
e 141 979
e 142 258
e 142 338
e 142 343
e 142 362
e 142 389
e 142 436
e 142 450
e 142 456
e 142 457
e 142 462
e 142 547
e 142 559
e 142 586
e 142 600
e 142 636
e 142 641
e 142 663
e 142 665
e 142 677
e 142 683
e 142 701
e 142 721
e 142 733
e 142 768
e 142 775
e 142 806
e 142 813
e 142 818
e 142 853
e 142 895
e 142 912
e 142 915
e 142 920
e 142 922
e 142 937
e 142 941
e 142 947
e 142 990
e 143 252
e 143 256
e 143 273
e 143 284
e 143 286
e 143 305
e 143 332
e 143 336
e 143 338
e 143 343
e 143 346
e 143 351
e 143 366
e 143 409
e 143 415
e 143 419
e 143 475
e 143 488
e 143 500
e 143 519
e 143 533
e 143 599
e 143 620
e 143 657
e 143 660
e 143 680
e 143 685
e 143 689
e 143 693
e 143 714
e 143 724
e 143 753
e 143 759
e 143 833
e 143 836
e 143 852
e 143 868
e 143 882
e 143 911
e 143 923
e 143 937
e 143 958
e 143 961
e 143 990
e 144 266
e 144 268
e 144 292
e 144 306
e 144 310
e 144 325
e 144 330
e 144 335
e 144 354
e 144 355
e 144 371
e 144 388
e 144 411
e 144 456
e 144 477
e 144 486
e 144 566
e 144 599
e 144 649
e 144 672
e 144 692
e 144 710
e 144 772
e 144 779
e 144 831
e 144 834
e 144 850
e 144 860
e 144 883
e 144 924
e 144 931
e 144 949
e 144 951
e 144 982
e 145 263
e 145 295
e 145 317
e 145 319
e 145 332
e 145 334
e 145 339
e 145 347
e 145 352
e 145 385
e 145 386
e 145 387
e 145 411
e 145 412
e 145 418
e 145 440
e 145 451
e 145 501
e 145 535
e 145 592
e 145 612
e 145 623
e 145 635
e 145 650
e 145 682
e 145 691
e 145 717
e 145 724
e 145 737
e 145 763
e 145 772
e 145 792
e 145 804
e 145 861
e 145 887
e 145 889
e 145 892
e 145 893
e 145 897
e 145 984
e 146 260
e 146 283
e 146 317
e 146 318
e 146 332
e 146 338
e 146 349
e 146 400
e 146 401
e 146 417
e 146 428
e 146 436
e 146 437
e 146 483
e 146 524
e 146 533
e 146 562
e 146 629
e 146 642
e 146 686
e 146 693
e 146 714
e 146 722
e 146 739
e 146 748
e 146 757
e 146 773
e 146 847
e 146 868
e 146 869
e 146 885
e 146 890
e 146 909
e 146 913
e 146 975
e 146 991
e 147 272
e 147 346
e 147 347
e 147 384
e 147 385
e 147 392
e 147 418
e 147 440
e 147 451
e 147 499
e 147 504
e 147 508
e 147 525
e 147 536
e 147 563
e 147 566
e 147 578
e 147 617
e 147 618
e 147 625
e 147 631
e 147 635
e 147 673
e 147 684
e 147 687
e 147 690
e 147 718
e 147 724
e 147 745
e 147 771
e 147 773
e 147 790
e 147 814
e 147 816
e 147 842
e 147 847
e 147 855
e 147 873
e 147 894
e 147 901
e 147 914
e 147 916
e 147 932
e 147 945
e 147 950
e 148 254
e 148 266
e 148 310
e 148 311
e 148 313
e 148 315
e 148 333
e 148 337
e 148 338
e 148 343
e 148 365
e 148 372
e 148 388
e 148 399
e 148 401
e 148 457
e 148 493
e 148 507
e 148 521
e 148 539
e 148 542
e 148 575
e 148 599
e 148 647
e 148 653
e 148 669
e 148 685
e 148 688
e 148 712
e 148 717
e 148 740
e 148 758
e 148 759
e 148 779
e 148 806
e 148 807
e 148 813
e 148 821
e 148 825
e 148 835
e 148 848
e 148 859
e 148 860
e 148 878
e 148 920
e 148 952
e 148 961
e 149 260
e 149 269
e 149 278
e 149 285
e 149 291
e 149 327
e 149 348
e 149 358
e 149 381
e 149 385
e 149 389
e 149 447
e 149 451
e 149 458
e 149 479
e 149 551
e 149 553
e 149 613
e 149 626
e 149 653
e 149 656
e 149 690
e 149 712
e 149 724
e 149 743
e 149 751
e 149 758
e 149 759
e 149 765
e 149 784
e 149 810
e 149 825
e 149 844
e 149 847
e 149 854
e 149 889
e 149 895
e 149 906
e 149 917
e 149 928
e 149 978
e 149 997
e 150 275
e 150 280
e 150 335
e 150 341
e 150 355
e 150 363
e 150 368
e 150 372
e 150 387
e 150 398
e 150 417
e 150 445
e 150 485
e 150 490
e 150 492
e 150 548
e 150 551
e 150 579
e 150 585
e 150 596
e 150 609
e 150 619
e 150 642
e 150 662
e 150 700
e 150 714
e 150 734
e 150 745
e 150 750
e 150 757
e 150 814
e 150 898
e 150 902
e 150 920
e 150 925
e 150 937
e 151 277
e 151 288
e 151 306
e 151 315
e 151 416
e 151 435
e 151 455
e 151 487
e 151 495
e 151 531
e 151 540
e 151 543
e 151 545
e 151 562
e 151 576
e 151 589
e 151 594
e 151 610
e 151 627
e 151 636
e 151 689
e 151 710
e 151 729
e 151 769
e 151 783
e 151 835
e 151 836
e 151 843
e 151 865
e 151 875
e 151 922
e 151 924
e 151 955
e 151 975
e 151 984
e 151 986
e 152 265
e 152 305
e 152 308
e 152 314
e 152 321
e 152 328
e 152 330
e 152 369
e 152 373
e 152 381
e 152 389
e 152 396
e 152 449
e 152 456
e 152 546
e 152 563
e 152 596
e 152 610
e 152 624
e 152 632
e 152 659
e 152 687
e 152 703
e 152 746
e 152 767
e 152 778
e 152 794
e 152 886
e 152 897
e 152 914
e 152 920
e 152 928
e 152 977
e 152 984
e 152 987
e 153 252
e 153 255
e 153 269
e 153 277
e 153 293
e 153 312
e 153 380
e 153 381
e 153 385
e 153 391
e 153 428
e 153 431
e 153 435
e 153 449
e 153 454
e 153 457
e 153 459
e 153 517
e 153 554
e 153 562
e 153 577
e 153 609
e 153 687
e 153 689
e 153 695
e 153 778
e 153 799
e 153 807
e 153 814
e 153 826
e 153 837
e 153 840
e 153 850
e 153 883
e 153 898
e 153 912
e 153 938
e 153 964
e 153 974
e 153 998
e 153 999
e 154 254
e 154 270
e 154 302
e 154 316
e 154 349
e 154 351
e 154 356
e 154 386
e 154 400
e 154 402
e 154 420
e 154 446
e 154 459
e 154 504
e 154 508
e 154 574
e 154 578
e 154 599
e 154 629
e 154 632
e 154 633
e 154 650
e 154 670
e 154 682
e 154 696
e 154 699
e 154 721
e 154 732
e 154 786
e 154 808
e 154 829
e 154 869
e 154 902
e 154 907
e 154 931
e 154 934
e 154 940
e 154 950
e 154 969
e 154 977
e 155 252
e 155 283
e 155 286
e 155 392
e 155 410
e 155 438
e 155 463
e 155 476
e 155 488
e 155 516
e 155 542
e 155 574
e 155 576
e 155 670
e 155 683
e 155 718
e 155 719
e 155 722
e 155 732
e 155 743
e 155 756
e 155 787
e 155 855
e 155 856
e 155 882
e 155 887
e 155 898
e 155 918
e 155 940
e 156 264
e 156 265
e 156 269
e 156 293
e 156 295
e 156 334
e 156 339
e 156 350
e 156 365
e 156 373
e 156 412
e 156 454
e 156 489
e 156 517
e 156 538
e 156 545
e 156 611
e 156 626
e 156 653
e 156 655
e 156 664
e 156 669
e 156 704
e 156 720
e 156 722
e 156 738
e 156 789
e 156 805
e 156 809
e 156 810
e 156 840
e 156 886
e 156 887
e 156 917
e 156 924
e 156 928
e 156 931
e 156 945
e 156 977
e 157 276
e 157 289
e 157 303
e 157 307
e 157 355
e 157 364
e 157 397
e 157 401
e 157 406
e 157 561
e 157 577
e 157 581
e 157 589
e 157 687
e 157 717
e 157 726
e 157 733
e 157 756
e 157 758
e 157 833
e 157 834
e 157 846
e 157 861
e 157 891
e 157 948
e 157 961
e 157 963
e 157 980
e 158 264
e 158 265
e 158 308
e 158 346
e 158 356
e 158 379
e 158 392
e 158 400
e 158 409
e 158 442
e 158 495
e 158 513
e 158 516
e 158 523
e 158 601
e 158 610
e 158 626
e 158 647
e 158 651
e 158 672
e 158 687
e 158 694
e 158 715
e 158 717
e 158 739
e 158 743
e 158 753
e 158 756
e 158 769
e 158 794
e 158 797
e 158 803
e 158 832
e 158 835
e 158 859
e 158 874
e 158 891
e 158 922
e 158 924
e 158 941
e 159 276
e 159 303
e 159 305
e 159 316
e 159 343
e 159 367
e 159 375
e 159 378
e 159 424
e 159 437
e 159 445
e 159 463
e 159 496
e 159 500
e 159 507
e 159 508
e 159 518
e 159 565
e 159 574
e 159 580
e 159 591
e 159 607
e 159 616
e 159 626
e 159 644
e 159 645
e 159 647
e 159 649
e 159 657
e 159 663
e 159 669
e 159 700
e 159 716
e 159 727
e 159 732
e 159 742
e 159 770
e 159 787
e 159 788
e 159 794
e 159 795
e 159 799
e 159 800
e 159 801
e 159 821
e 159 824
e 159 830
e 159 840
e 159 849
e 159 889
e 159 891
e 159 911
e 159 922
e 159 924
e 159 1000
e 160 265
e 160 281
e 160 317
e 160 325
e 160 355
e 160 356
e 160 360
e 160 370
e 160 382
e 160 385
e 160 390
e 160 394
e 160 416
e 160 425
e 160 429
e 160 430
e 160 433
e 160 436
e 160 496
e 160 505
e 160 511
e 160 513
e 160 556
e 160 618
e 160 621
e 160 634
e 160 674
e 160 703
e 160 704
e 160 763
e 160 777
e 160 781
e 160 790
e 160 801
e 160 818
e 160 842
e 160 848
e 160 860
e 160 904
e 160 937
e 160 949
e 160 965
e 160 978
e 160 979
e 160 984
e 161 288
e 161 289
e 161 297
e 161 330
e 161 337
e 161 387
e 161 401
e 161 408
e 161 474
e 161 475
e 161 489
e 161 491
e 161 494
e 161 496
e 161 503
e 161 504
e 161 509
e 161 524
e 161 534
e 161 535
e 161 538
e 161 592
e 161 607
e 161 629
e 161 636
e 161 709
e 161 710
e 161 714
e 161 741
e 161 745
e 161 749
e 161 752
e 161 755
e 161 793
e 161 799
e 161 883
e 161 903
e 161 912
e 161 913
e 161 915
e 161 931
e 161 990
e 162 281
e 162 294
e 162 344
e 162 389
e 162 393
e 162 396
e 162 416
e 162 451
e 162 482
e 162 497
e 162 517
e 162 526
e 162 537
e 162 541
e 162 548
e 162 553
e 162 572
e 162 578
e 162 598
e 162 604
e 162 630
e 162 640
e 162 686
e 162 696
e 162 701
e 162 708
e 162 716
e 162 775
e 162 800
e 162 810
e 162 821
e 162 848
e 162 862
e 162 863
e 162 884
e 162 894
e 162 942
e 162 943
e 162 944
e 162 963
e 162 966
e 163 260
e 163 268
e 163 301
e 163 371
e 163 401
e 163 419
e 163 422
e 163 433
e 163 435
e 163 440
e 163 467
e 163 483
e 163 537
e 163 561
e 163 562
e 163 569
e 163 598
e 163 651
e 163 652
e 163 680
e 163 705
e 163 707
e 163 723
e 163 767
e 163 793
e 163 837
e 163 839
e 163 843
e 163 858
e 163 867
e 163 876
e 163 944
e 163 959
e 163 971
e 163 994
e 164 252
e 164 278
e 164 338
e 164 374
e 164 385
e 164 393
e 164 409
e 164 417
e 164 441
e 164 445
e 164 457
e 164 462
e 164 471
e 164 490
e 164 492
e 164 495
e 164 500
e 164 502
e 164 506
e 164 531
e 164 542
e 164 599
e 164 607
e 164 636
e 164 665
e 164 672
e 164 677
e 164 681
e 164 757
e 164 761
e 164 797
e 164 830
e 164 834
e 164 839
e 164 842
e 164 854
e 164 861
e 164 946
e 164 969
e 164 971
e 164 978
e 164 998
e 165 263
e 165 286
e 165 328
e 165 336
e 165 338
e 165 379
e 165 390
e 165 435
e 165 459
e 165 493
e 165 501
e 165 526
e 165 561
e 165 737
e 165 756
e 165 782
e 165 853
e 165 855
e 165 876
e 165 878
e 165 888
e 165 890
e 165 932
e 166 301
e 166 314
e 166 322
e 166 323
e 166 358
e 166 360
e 166 362
e 166 368
e 166 376
e 166 389
e 166 399
e 166 486
e 166 501
e 166 528
e 166 539
e 166 600
e 166 602
e 166 622
e 166 627
e 166 638
e 166 696
e 166 707
e 166 737
e 166 744
e 166 746
e 166 753
e 166 758
e 166 768
e 166 795
e 166 807
e 166 845
e 166 850
e 166 854
e 166 862
e 166 868
e 166 896
e 166 899
e 166 902
e 166 982
e 167 287
e 167 347
e 167 357
e 167 361
e 167 387
e 167 422
e 167 435
e 167 458
e 167 472
e 167 478
e 167 483
e 167 505
e 167 518
e 167 546
e 167 547
e 167 592
e 167 606
e 167 611
e 167 628
e 167 648
e 167 690
e 167 699
e 167 794
e 167 813
e 167 823
e 167 837
e 167 869
e 167 933
e 168 263
e 168 273
e 168 277
e 168 290
e 168 306
e 168 324
e 168 330
e 168 337
e 168 348
e 168 353
e 168 410
e 168 414
e 168 459
e 168 478
e 168 490
e 168 515
e 168 517
e 168 528
e 168 531
e 168 537
e 168 551
e 168 553
e 168 563
e 168 564
e 168 597
e 168 614
e 168 629
e 168 652
e 168 658
e 168 687
e 168 718
e 168 727
e 168 732
e 168 750
e 168 755
e 168 804
e 168 808
e 168 811
e 168 866
e 168 872
e 168 918
e 168 938
e 168 944
e 168 976
e 168 987
e 169 283
e 169 285
e 169 309
e 169 320
e 169 327
e 169 349
e 169 374
e 169 377
e 169 400
e 169 417
e 169 420
e 169 442
e 169 461
e 169 472
e 169 489
e 169 493
e 169 497
e 169 516
e 169 535
e 169 538
e 169 561
e 169 572
e 169 592
e 169 599
e 169 611
e 169 645
e 169 649
e 169 661
e 169 667
e 169 671
e 169 694
e 169 701
e 169 714
e 169 725
e 169 731
e 169 758
e 169 761
e 169 770
e 169 772
e 169 786
e 169 806
e 169 846
e 169 859
e 169 862
e 169 890
e 169 909
e 169 931
e 169 944
e 169 951
e 169 957
e 169 965
e 169 971
e 169 983
e 169 988
e 169 996
e 170 262
e 170 266
e 170 278
e 170 302
e 170 313
e 170 366
e 170 378
e 170 386
e 170 388
e 170 394
e 170 430
e 170 454
e 170 483
e 170 508
e 170 525
e 170 554
e 170 612
e 170 613
e 170 626
e 170 664
e 170 687
e 170 702
e 170 708
e 170 723
e 170 745
e 170 757
e 170 758
e 170 769
e 170 807
e 170 860
e 170 881
e 170 892
e 170 895
e 170 913
e 170 916
e 170 919
e 170 957
e 170 967
e 171 260
e 171 268
e 171 278
e 171 288
e 171 289
e 171 292
e 171 296
e 171 302
e 171 320
e 171 324
e 171 338
e 171 346
e 171 392
e 171 407
e 171 425
e 171 445
e 171 469
e 171 491
e 171 493
e 171 497
e 171 502
e 171 504
e 171 512
e 171 529
e 171 534
e 171 582
e 171 591
e 171 627
e 171 629
e 171 640
e 171 660
e 171 698
e 171 700
e 171 717
e 171 755
e 171 767
e 171 801
e 171 810
e 171 812
e 171 818
e 171 824
e 171 837
e 171 847
e 171 863
e 171 873
e 171 932
e 171 941
e 171 966
e 171 992
e 172 308
e 172 321
e 172 330
e 172 351
e 172 373
e 172 381
e 172 382
e 172 383
e 172 391
e 172 403
e 172 411
e 172 419
e 172 432
e 172 433
e 172 441
e 172 458
e 172 484
e 172 491
e 172 504
e 172 512
e 172 525
e 172 556
e 172 596
e 172 630
e 172 641
e 172 652
e 172 660
e 172 673
e 172 679
e 172 749
e 172 803
e 172 844
e 172 845
e 172 906
e 172 925
e 172 935
e 172 945
e 172 946
e 172 966
e 172 982
e 173 256
e 173 278
e 173 308
e 173 317
e 173 339
e 173 405
e 173 476
e 173 486
e 173 500
e 173 506
e 173 510
e 173 540
e 173 546
e 173 552
e 173 555
e 173 584
e 173 589
e 173 609
e 173 622
e 173 630
e 173 644
e 173 652
e 173 673
e 173 676
e 173 692
e 173 721
e 173 723
e 173 823
e 173 846
e 173 874
e 173 932
e 173 972
e 173 1000
e 174 292
e 174 300
e 174 333
e 174 341
e 174 344
e 174 352
e 174 377
e 174 415
e 174 431
e 174 467
e 174 468
e 174 494
e 174 508
e 174 522
e 174 528
e 174 551
e 174 556
e 174 559
e 174 581
e 174 586
e 174 604
e 174 628
e 174 639
e 174 661
e 174 691
e 174 717
e 174 735
e 174 738
e 174 778
e 174 784
e 174 814
e 174 815
e 174 822
e 174 853
e 174 879
e 174 887
e 174 895
e 174 907
e 174 912
e 174 959
e 175 257
e 175 280
e 175 296
e 175 297
e 175 326
e 175 329
e 175 330
e 175 343
e 175 379
e 175 414
e 175 420
e 175 453
e 175 499
e 175 505
e 175 526
e 175 532
e 175 606
e 175 652
e 175 655
e 175 663
e 175 688
e 175 690
e 175 749
e 175 776
e 175 780
e 175 795
e 175 803
e 175 815
e 175 819
e 175 834
e 175 852
e 175 861
e 175 865
e 175 879
e 175 904
e 175 921
e 175 929
e 175 979
e 175 982
e 175 988
e 176 345
e 176 347
e 176 358
e 176 362
e 176 365
e 176 386
e 176 422
e 176 431
e 176 434
e 176 456
e 176 480
e 176 493
e 176 526
e 176 537
e 176 545
e 176 560
e 176 567
e 176 590
e 176 621
e 176 639
e 176 645
e 176 650
e 176 654
e 176 681
e 176 682
e 176 757
e 176 803
e 176 810
e 176 841
e 176 845
e 176 857
e 176 866
e 176 892
e 176 898
e 176 903
e 176 937
e 176 942
e 176 948
e 176 952
e 176 965
e 177 274
e 177 285
e 177 313
e 177 380
e 177 430
e 177 437
e 177 438
e 177 448
e 177 452
e 177 458
e 177 460
e 177 474
e 177 496
e 177 549
e 177 630
e 177 640
e 177 644
e 177 688
e 177 701
e 177 710
e 177 745
e 177 781
e 177 804
e 177 806
e 177 874
e 177 886
e 177 919
e 177 924
e 177 949
e 177 975
e 177 982
e 177 984
e 178 268
e 178 284
e 178 322
e 178 330
e 178 345
e 178 381
e 178 398
e 178 427
e 178 467
e 178 496
e 178 506
e 178 581
e 178 588
e 178 596
e 178 622
e 178 629
e 178 630
e 178 645
e 178 666
e 178 672
e 178 702
e 178 704
e 178 710
e 178 757
e 178 781
e 178 796
e 178 799
e 178 809
e 178 815
e 178 836
e 178 845
e 178 849
e 178 852
e 178 863
e 178 866
e 178 870
e 178 931
e 178 961
e 178 979
e 178 987
e 179 276
e 179 298
e 179 318
e 179 323
e 179 359
e 179 398
e 179 422
e 179 423
e 179 428
e 179 447
e 179 454
e 179 512
e 179 526
e 179 583
e 179 636
e 179 644
e 179 690
e 179 784
e 179 795
e 179 816
e 179 821
e 179 824
e 179 886
e 179 893
e 179 896
e 179 897
e 179 900
e 179 901
e 179 917
e 179 922
e 179 927
e 179 947
e 180 264
e 180 269
e 180 280
e 180 299
e 180 310
e 180 312
e 180 317
e 180 349
e 180 356
e 180 364
e 180 371
e 180 374
e 180 384
e 180 398
e 180 426
e 180 448
e 180 454
e 180 473
e 180 478
e 180 491
e 180 502
e 180 503
e 180 519
e 180 527
e 180 553
e 180 586
e 180 591
e 180 630
e 180 654
e 180 683
e 180 685
e 180 749
e 180 772
e 180 792
e 180 846
e 180 853
e 180 866
e 180 888
e 180 893
e 180 951
e 181 270
e 181 316
e 181 350
e 181 354
e 181 372
e 181 375
e 181 384
e 181 394
e 181 405
e 181 408
e 181 472
e 181 498
e 181 506
e 181 535
e 181 582
e 181 585
e 181 598
e 181 600
e 181 614
e 181 659
e 181 678
e 181 694
e 181 717
e 181 725
e 181 733
e 181 865
e 181 884
e 181 887
e 181 908
e 181 918
e 181 930
e 181 971
e 181 991
e 182 251
e 182 411
e 182 419
e 182 421
e 182 432
e 182 442
e 182 450
e 182 458
e 182 462
e 182 472
e 182 522
e 182 525
e 182 531
e 182 619
e 182 649
e 182 650
e 182 671
e 182 674
e 182 682
e 182 694
e 182 695
e 182 698
e 182 701
e 182 710
e 182 713
e 182 715
e 182 721
e 182 734
e 182 736
e 182 744
e 182 762
e 182 783
e 182 784
e 182 826
e 182 838
e 182 843
e 182 860
e 182 913
e 182 917
e 182 943
e 182 953
e 182 955
e 183 251
e 183 298
e 183 373
e 183 391
e 183 421
e 183 431
e 183 446
e 183 535
e 183 542
e 183 551
e 183 560
e 183 569
e 183 574
e 183 598
e 183 605
e 183 623
e 183 670
e 183 672
e 183 705
e 183 715
e 183 719
e 183 720
e 183 790
e 183 798
e 183 805
e 183 831
e 183 835
e 183 855
e 183 880
e 183 886
e 183 898
e 183 939
e 183 946
e 183 954
e 183 967
e 183 1000
e 184 324
e 184 333
e 184 362
e 184 368
e 184 376
e 184 391
e 184 410
e 184 448
e 184 464
e 184 487
e 184 547
e 184 587
e 184 601
e 184 605
e 184 619
e 184 627
e 184 631
e 184 641
e 184 642
e 184 652
e 184 663
e 184 670
e 184 672
e 184 685
e 184 740
e 184 800
e 184 842
e 184 871
e 184 874
e 184 881
e 184 904
e 184 909
e 184 911
e 184 940
e 184 949
e 184 977
e 185 255
e 185 310
e 185 322
e 185 356
e 185 368
e 185 389
e 185 391
e 185 409
e 185 425
e 185 435
e 185 442
e 185 446
e 185 481
e 185 486
e 185 518
e 185 522
e 185 552
e 185 568
e 185 590
e 185 604
e 185 644
e 185 689
e 185 714
e 185 740
e 185 772
e 185 781
e 185 793
e 185 847
e 185 880
e 185 883
e 185 891
e 185 900
e 185 902
e 185 955
e 185 960
e 185 968
e 185 970
e 186 263
e 186 286
e 186 290
e 186 298
e 186 307
e 186 322
e 186 367
e 186 370
e 186 403
e 186 416
e 186 479
e 186 517
e 186 573
e 186 597
e 186 612
e 186 627
e 186 640
e 186 651
e 186 652
e 186 719
e 186 726
e 186 728
e 186 770
e 186 771
e 186 820
e 186 831
e 186 847
e 186 858
e 186 864
e 186 909
e 186 922
e 186 927
e 186 933
e 186 953
e 186 960
e 187 256
e 187 275
e 187 276
e 187 294
e 187 331
e 187 346
e 187 455
e 187 471
e 187 477
e 187 479
e 187 522
e 187 533
e 187 537
e 187 558
e 187 572
e 187 582
e 187 588
e 187 625
e 187 644
e 187 662
e 187 673
e 187 692
e 187 708
e 187 719
e 187 727
e 187 735
e 187 743
e 187 746
e 187 769
e 187 777
e 187 832
e 187 837
e 187 856
e 187 879
e 187 893
e 187 914
e 187 925
e 187 974
e 187 988
e 188 286
e 188 310
e 188 373
e 188 400
e 188 408
e 188 459
e 188 503
e 188 554
e 188 573
e 188 610
e 188 642
e 188 646
e 188 681
e 188 683
e 188 692
e 188 697
e 188 699
e 188 709
e 188 717
e 188 722
e 188 730
e 188 734
e 188 746
e 188 765
e 188 786
e 188 805
e 188 836
e 188 861
e 188 870
e 188 894
e 188 896
e 188 906
e 188 908
e 188 921
e 188 923
e 188 926
e 188 946
e 188 953
e 188 955
e 188 982
e 189 261
e 189 265
e 189 267
e 189 282
e 189 302
e 189 315
e 189 332
e 189 344
e 189 449
e 189 461
e 189 483
e 189 524
e 189 528
e 189 544
e 189 596
e 189 629
e 189 688
e 189 695
e 189 696
e 189 737
e 189 818
e 189 876
e 189 877
e 189 940
e 189 980
e 190 269
e 190 278
e 190 293
e 190 298
e 190 320
e 190 322
e 190 382
e 190 420
e 190 437
e 190 448
e 190 449
e 190 456
e 190 484
e 190 527
e 190 531
e 190 566
e 190 614
e 190 625
e 190 684
e 190 685
e 190 689
e 190 691
e 190 694
e 190 703
e 190 706
e 190 720
e 190 729
e 190 732
e 190 742
e 190 756
e 190 757
e 190 765
e 190 814
e 190 839
e 190 846
e 190 872
e 190 875
e 190 882
e 190 897
e 190 915
e 190 937
e 190 938
e 190 949
e 190 978
e 191 271
e 191 274
e 191 280
e 191 286
e 191 297
e 191 317
e 191 333
e 191 348
e 191 378
e 191 384
e 191 435
e 191 462
e 191 479
e 191 544
e 191 545
e 191 552
e 191 569
e 191 590
e 191 593
e 191 601
e 191 626
e 191 637
e 191 643
e 191 652
e 191 690
e 191 700
e 191 763
e 191 790
e 191 821
e 191 866
e 191 892
e 191 907
e 191 924
e 191 1000
e 192 268
e 192 277
e 192 324
e 192 350
e 192 381
e 192 387
e 192 389
e 192 431
e 192 438
e 192 447
e 192 521
e 192 539
e 192 634
e 192 647
e 192 656
e 192 663
e 192 670
e 192 695
e 192 714
e 192 775
e 192 799
e 192 809
e 192 825
e 192 872
e 192 873
e 192 926
e 192 928
e 192 939
e 192 951
e 192 953
e 192 995
e 193 267
e 193 288
e 193 292
e 193 305
e 193 306
e 193 344
e 193 374
e 193 390
e 193 500
e 193 532
e 193 535
e 193 583
e 193 602
e 193 606
e 193 617
e 193 634
e 193 651
e 193 683
e 193 688
e 193 719
e 193 722
e 193 733
e 193 758
e 193 765
e 193 770
e 193 806
e 193 814
e 193 824
e 193 846
e 193 847
e 193 854
e 193 858
e 193 860
e 193 872
e 193 880
e 193 884
e 193 919
e 193 954
e 193 955
e 193 965
e 193 984
e 194 261
e 194 279
e 194 287
e 194 296
e 194 326
e 194 333
e 194 341
e 194 375
e 194 389
e 194 397
e 194 407
e 194 418
e 194 444
e 194 450
e 194 455
e 194 502
e 194 512
e 194 518
e 194 528
e 194 580
e 194 581
e 194 587
e 194 594
e 194 611
e 194 612
e 194 635
e 194 664
e 194 672
e 194 703
e 194 768
e 194 794
e 194 833
e 194 874
e 194 892
e 194 895
e 194 909
e 194 919
e 194 928
e 194 965
e 194 972
e 194 996
e 194 998
e 195 268
e 195 271
e 195 330
e 195 332
e 195 349
e 195 363
e 195 373
e 195 388
e 195 416
e 195 463
e 195 467
e 195 531
e 195 534
e 195 550
e 195 559
e 195 572
e 195 592
e 195 609
e 195 614
e 195 622
e 195 625
e 195 649
e 195 665
e 195 667
e 195 674
e 195 675
e 195 714
e 195 722
e 195 726
e 195 729
e 195 756
e 195 791
e 195 793
e 195 797
e 195 801
e 195 814
e 195 832
e 195 893
e 195 913
e 195 938
e 195 945
e 195 974
e 195 977
e 195 985
e 196 256
e 196 261
e 196 271
e 196 306
e 196 324
e 196 336
e 196 337
e 196 343
e 196 348
e 196 425
e 196 441
e 196 519
e 196 524
e 196 536
e 196 550
e 196 559
e 196 578
e 196 587
e 196 597
e 196 616
e 196 631
e 196 668
e 196 796
e 196 810
e 196 823
e 196 841
e 196 853
e 196 883
e 196 913
e 196 936
e 196 951
e 196 994
e 196 1000
e 197 270
e 197 274
e 197 286
e 197 287
e 197 304
e 197 340
e 197 350
e 197 362
e 197 381
e 197 390
e 197 395
e 197 424
e 197 435
e 197 456
e 197 471
e 197 474
e 197 493
e 197 509
e 197 512
e 197 541
e 197 542
e 197 544
e 197 556
e 197 558
e 197 590
e 197 661
e 197 683
e 197 696
e 197 705
e 197 757
e 197 828
e 197 831
e 197 854
e 197 856
e 197 863
e 197 864
e 197 882
e 197 885
e 197 922
e 197 926
e 197 930
e 197 950
e 197 957
e 197 970
e 197 991
e 197 993
e 198 266
e 198 274
e 198 277
e 198 280
e 198 298
e 198 302
e 198 312
e 198 331
e 198 340
e 198 348
e 198 374
e 198 376
e 198 383
e 198 392
e 198 400
e 198 425
e 198 433
e 198 489
e 198 490
e 198 500
e 198 503
e 198 539
e 198 540
e 198 557
e 198 585
e 198 597
e 198 642
e 198 680
e 198 742
e 198 744
e 198 759
e 198 792
e 198 804
e 198 818
e 198 832
e 198 856
e 198 906
e 198 921
e 198 928
e 198 963
e 198 977
e 199 266
e 199 285
e 199 313
e 199 331
e 199 354
e 199 362
e 199 399
e 199 407
e 199 469
e 199 524
e 199 534
e 199 536
e 199 551
e 199 589
e 199 591
e 199 597
e 199 615
e 199 654
e 199 718
e 199 727
e 199 734
e 199 741
e 199 756
e 199 775
e 199 779
e 199 781
e 199 817
e 199 854
e 199 928
e 199 938
e 199 940
e 199 968
e 199 974
e 200 253
e 200 340
e 200 353
e 200 372
e 200 391
e 200 394
e 200 461
e 200 466
e 200 476
e 200 502
e 200 503
e 200 509
e 200 533
e 200 570
e 200 578
e 200 589
e 200 598
e 200 606
e 200 609
e 200 640
e 200 641
e 200 653
e 200 654
e 200 658
e 200 662
e 200 771
e 200 811
e 200 837
e 200 842
e 200 843
e 200 857
e 200 861
e 200 896
e 200 935
e 201 264
e 201 275
e 201 345
e 201 366
e 201 373
e 201 384
e 201 387
e 201 391
e 201 398
e 201 499
e 201 526
e 201 542
e 201 562
e 201 624
e 201 633
e 201 657
e 201 687
e 201 691
e 201 707
e 201 714
e 201 756
e 201 769
e 201 795
e 201 802
e 201 806
e 201 815
e 201 819
e 201 821
e 201 844
e 201 899
e 201 903
e 201 911
e 201 934
e 201 938
e 201 944
e 201 955
e 201 959
e 201 969
e 201 988
e 202 252
e 202 254
e 202 256
e 202 278
e 202 282
e 202 291
e 202 300
e 202 326
e 202 364
e 202 371
e 202 373
e 202 402
e 202 406
e 202 445
e 202 464
e 202 513
e 202 518
e 202 522
e 202 539
e 202 595
e 202 648
e 202 698
e 202 704
e 202 719
e 202 734
e 202 742
e 202 782
e 202 788
e 202 798
e 202 812
e 202 816
e 202 825
e 202 863
e 202 866
e 202 909
e 202 934
e 202 964
e 202 987
e 203 273
e 203 296
e 203 322
e 203 336
e 203 369
e 203 372
e 203 375
e 203 388
e 203 390
e 203 401
e 203 405
e 203 418
e 203 458
e 203 466
e 203 504
e 203 528
e 203 579
e 203 583
e 203 602
e 203 657
e 203 665
e 203 677
e 203 707
e 203 719
e 203 735
e 203 811
e 203 907
e 203 926
e 203 951
e 203 965
e 203 972
e 204 284
e 204 319
e 204 336
e 204 355
e 204 385
e 204 411
e 204 429
e 204 454
e 204 500
e 204 507
e 204 525
e 204 542
e 204 555
e 204 564
e 204 657
e 204 661
e 204 691
e 204 744
e 204 755
e 204 821
e 204 830
e 204 843
e 204 844
e 204 878
e 204 883
e 204 893
e 204 904
e 204 909
e 204 925
e 204 934
e 204 968
e 204 987
e 204 992
e 205 258
e 205 268
e 205 269
e 205 300
e 205 333
e 205 358
e 205 376
e 205 396
e 205 400
e 205 424
e 205 435
e 205 481
e 205 515
e 205 524
e 205 530
e 205 531
e 205 552
e 205 562
e 205 579
e 205 607
e 205 621
e 205 633
e 205 648
e 205 672
e 205 676
e 205 679
e 205 707
e 205 727
e 205 741
e 205 742
e 205 744
e 205 748
e 205 756
e 205 765
e 205 768
e 205 771
e 205 799
e 205 804
e 205 821
e 205 828
e 205 839
e 205 847
e 205 862
e 205 884
e 205 904
e 205 929
e 205 962
e 206 263
e 206 296
e 206 299
e 206 322
e 206 335
e 206 338
e 206 342
e 206 368
e 206 376
e 206 381
e 206 384
e 206 388
e 206 411
e 206 414
e 206 415
e 206 451
e 206 474
e 206 476
e 206 483
e 206 525
e 206 579
e 206 594
e 206 609
e 206 636
e 206 694
e 206 722
e 206 756
e 206 770
e 206 778
e 206 787
e 206 864
e 206 865
e 206 876
e 206 878
e 206 902
e 206 916
e 206 946
e 207 251
e 207 263
e 207 286
e 207 288
e 207 310
e 207 313
e 207 322
e 207 332
e 207 343
e 207 352
e 207 371
e 207 499
e 207 518
e 207 519
e 207 529
e 207 535
e 207 546
e 207 551
e 207 574
e 207 596
e 207 624
e 207 636
e 207 652
e 207 665
e 207 679
e 207 712
e 207 722
e 207 785
e 207 798
e 207 810
e 207 827
e 207 830
e 207 842
e 207 850
e 207 859
e 207 863
e 207 884
e 207 902
e 207 931
e 207 945
e 207 968
e 207 972
e 207 977
e 208 273
e 208 280
e 208 296
e 208 304
e 208 306
e 208 318
e 208 325
e 208 344
e 208 347
e 208 351
e 208 357
e 208 361
e 208 379
e 208 426
e 208 436
e 208 437
e 208 454
e 208 506
e 208 514
e 208 522
e 208 538
e 208 556
e 208 558
e 208 605
e 208 611
e 208 620
e 208 637
e 208 671
e 208 682
e 208 692
e 208 736
e 208 756
e 208 789
e 208 814
e 208 819
e 208 830
e 208 867
e 208 929
e 208 953
e 208 954
e 208 966
e 208 979
e 208 992
e 209 260
e 209 304
e 209 348
e 209 396
e 209 404
e 209 406
e 209 412
e 209 421
e 209 458
e 209 464
e 209 488
e 209 489
e 209 522
e 209 543
e 209 590
e 209 592
e 209 621
e 209 627
e 209 663
e 209 675
e 209 690
e 209 785
e 209 800
e 209 819
e 209 856
e 209 867
e 209 869
e 209 877
e 209 895
e 209 926
e 209 930
e 209 945
e 209 952
e 209 958
e 209 961
e 209 965
e 210 274
e 210 290
e 210 319
e 210 330
e 210 340
e 210 367
e 210 415
e 210 419
e 210 475
e 210 506
e 210 507
e 210 518
e 210 524
e 210 553
e 210 569
e 210 640
e 210 678
e 210 742
e 210 770
e 210 778
e 210 817
e 210 858
e 210 862
e 210 871
e 210 872
e 210 885
e 210 897
e 210 899
e 210 925
e 210 945
e 211 269
e 211 367
e 211 368
e 211 412
e 211 433
e 211 444
e 211 495
e 211 507
e 211 512
e 211 516
e 211 549
e 211 566
e 211 612
e 211 615
e 211 642
e 211 665
e 211 696
e 211 708
e 211 722
e 211 761
e 211 764
e 211 775
e 211 786
e 211 799
e 211 821
e 211 837
e 211 903
e 211 930
e 211 931
e 211 965
e 211 982
e 211 993
e 212 264
e 212 279
e 212 282
e 212 286
e 212 291
e 212 307
e 212 327
e 212 382
e 212 392
e 212 395
e 212 422
e 212 424
e 212 452
e 212 464
e 212 492
e 212 502
e 212 541
e 212 553
e 212 556
e 212 559
e 212 566
e 212 625
e 212 632
e 212 634
e 212 647
e 212 715
e 212 723
e 212 780
e 212 813
e 212 823
e 212 860
e 212 861
e 212 866
e 212 879
e 212 902
e 212 903
e 212 963
e 212 966
e 212 976
e 212 981
e 213 254
e 213 255
e 213 298
e 213 360
e 213 363
e 213 376
e 213 411
e 213 418
e 213 423
e 213 441
e 213 450
e 213 462
e 213 482
e 213 487
e 213 489
e 213 526
e 213 536
e 213 542
e 213 567
e 213 570
e 213 602
e 213 618
e 213 639
e 213 642
e 213 663
e 213 685
e 213 697
e 213 699
e 213 704
e 213 713
e 213 737
e 213 742
e 213 764
e 213 777
e 213 871
e 213 889
e 213 897
e 213 901
e 213 912
e 213 922
e 213 944
e 213 952
e 213 960
e 213 967
e 213 981
e 213 992
e 214 279
e 214 292
e 214 350
e 214 357
e 214 386
e 214 409
e 214 414
e 214 428
e 214 430
e 214 441
e 214 445
e 214 446
e 214 496
e 214 501
e 214 572
e 214 587
e 214 625
e 214 642
e 214 649
e 214 653
e 214 654
e 214 731
e 214 743
e 214 756
e 214 762
e 214 772
e 214 839
e 214 851
e 214 865
e 214 884
e 214 936
e 214 948
e 214 949
e 214 952
e 214 981
e 215 261
e 215 272
e 215 276
e 215 299
e 215 315
e 215 344
e 215 349
e 215 354
e 215 358
e 215 388
e 215 401
e 215 406
e 215 423
e 215 452
e 215 473
e 215 508
e 215 535
e 215 585
e 215 611
e 215 619
e 215 634
e 215 648
e 215 687
e 215 688
e 215 718
e 215 760
e 215 765
e 215 768
e 215 774
e 215 832
e 215 834
e 215 868
e 215 876
e 215 884
e 215 954
e 215 992
e 216 254
e 216 265
e 216 309
e 216 318
e 216 358
e 216 374
e 216 384
e 216 393
e 216 403
e 216 415
e 216 417
e 216 438
e 216 445
e 216 472
e 216 520
e 216 522
e 216 544
e 216 611
e 216 622
e 216 628
e 216 668
e 216 697
e 216 711
e 216 720
e 216 729
e 216 730
e 216 732
e 216 736
e 216 783
e 216 857
e 216 861
e 216 882
e 216 897
e 216 910
e 217 264
e 217 303
e 217 360
e 217 381
e 217 397
e 217 416
e 217 421
e 217 432
e 217 447
e 217 460
e 217 461
e 217 510
e 217 530
e 217 575
e 217 599
e 217 618
e 217 620
e 217 632
e 217 634
e 217 642
e 217 658
e 217 676
e 217 693
e 217 721
e 217 737
e 217 753
e 217 771
e 217 805
e 217 821
e 217 862
e 217 871
e 217 875
e 217 886
e 217 890
e 217 896
e 217 915
e 217 949
e 217 960
e 217 985
e 217 990
e 217 992
e 218 280
e 218 311
e 218 358
e 218 374
e 218 404
e 218 405
e 218 412
e 218 441
e 218 453
e 218 455
e 218 465
e 218 480
e 218 538
e 218 572
e 218 583
e 218 624
e 218 667
e 218 704
e 218 724
e 218 727
e 218 745
e 218 750
e 218 754
e 218 766
e 218 774
e 218 793
e 218 833
e 218 841
e 218 844
e 218 847
e 218 849
e 218 875
e 218 881
e 218 885
e 218 912
e 218 980
e 218 996
e 218 999
e 219 286
e 219 295
e 219 307
e 219 312
e 219 317
e 219 331
e 219 339
e 219 363
e 219 375
e 219 399
e 219 415
e 219 421
e 219 470
e 219 519
e 219 561
e 219 603
e 219 630
e 219 636
e 219 640
e 219 646
e 219 653
e 219 672
e 219 674
e 219 726
e 219 770
e 219 779
e 219 785
e 219 793
e 219 794
e 219 803
e 219 826
e 219 911
e 219 981
e 219 991
e 220 264
e 220 289
e 220 292
e 220 367
e 220 373
e 220 376
e 220 400
e 220 432
e 220 434
e 220 437
e 220 532
e 220 537
e 220 542
e 220 544
e 220 556
e 220 618
e 220 644
e 220 659
e 220 682
e 220 690
e 220 722
e 220 739
e 220 749
e 220 763
e 220 780
e 220 783
e 220 784
e 220 790
e 220 791
e 220 814
e 220 853
e 220 867
e 220 887
e 220 895
e 220 957
e 220 964
e 221 266
e 221 296
e 221 314
e 221 362
e 221 380
e 221 403
e 221 416
e 221 433
e 221 434
e 221 437
e 221 438
e 221 453
e 221 462
e 221 478
e 221 482
e 221 485
e 221 489
e 221 512
e 221 550
e 221 554
e 221 558
e 221 580
e 221 601
e 221 651
e 221 655
e 221 668
e 221 679
e 221 700
e 221 715
e 221 719
e 221 722
e 221 724
e 221 726
e 221 749
e 221 780
e 221 792
e 221 799
e 221 812
e 221 821
e 221 837
e 221 894
e 221 910
e 221 930
e 221 937
e 221 947
e 221 979
e 221 991
e 222 252
e 222 255
e 222 313
e 222 325
e 222 449
e 222 506
e 222 524
e 222 545
e 222 558
e 222 586
e 222 587
e 222 634
e 222 654
e 222 662
e 222 669
e 222 674
e 222 717
e 222 723
e 222 739
e 222 748
e 222 775
e 222 788
e 222 796
e 222 834
e 222 839
e 222 843
e 222 861
e 222 869
e 222 880
e 222 892
e 222 914
e 222 915
e 222 941
e 223 251
e 223 255
e 223 256
e 223 257
e 223 259
e 223 300
e 223 311
e 223 339
e 223 374
e 223 428
e 223 436
e 223 461
e 223 462
e 223 467
e 223 493
e 223 499
e 223 508
e 223 533
e 223 547
e 223 566
e 223 610
e 223 632
e 223 633
e 223 636
e 223 664
e 223 670
e 223 685
e 223 690
e 223 708
e 223 770
e 223 811
e 223 836
e 223 865
e 223 889
e 223 892
e 223 918
e 223 934
e 223 942
e 223 944
e 223 971
e 223 983
e 223 989
e 223 990
e 224 264
e 224 315
e 224 346
e 224 356
e 224 367
e 224 391
e 224 401
e 224 435
e 224 449
e 224 456
e 224 467
e 224 491
e 224 494
e 224 511
e 224 537
e 224 538
e 224 573
e 224 619
e 224 642
e 224 646
e 224 653
e 224 657
e 224 705
e 224 714
e 224 719
e 224 734
e 224 775
e 224 784
e 224 790
e 224 848
e 224 853
e 224 858
e 224 869
e 224 872
e 224 874
e 224 901
e 224 977
e 224 979
e 225 263
e 225 269
e 225 271
e 225 277
e 225 313
e 225 316
e 225 349
e 225 361
e 225 400
e 225 403
e 225 411
e 225 413
e 225 420
e 225 429
e 225 432
e 225 465
e 225 490
e 225 503
e 225 505
e 225 512
e 225 574
e 225 584
e 225 607
e 225 612
e 225 615
e 225 662
e 225 668
e 225 673
e 225 695
e 225 716
e 225 751
e 225 782
e 225 791
e 225 797
e 225 848
e 225 866
e 225 886
e 225 890
e 225 921
e 225 982
e 225 984
e 226 259
e 226 279
e 226 299
e 226 313
e 226 350
e 226 373
e 226 375
e 226 376
e 226 440
e 226 483
e 226 497
e 226 536
e 226 555
e 226 557
e 226 589
e 226 596
e 226 611
e 226 631
e 226 647
e 226 693
e 226 696
e 226 712
e 226 733
e 226 743
e 226 758
e 226 786
e 226 794
e 226 796
e 226 832
e 226 869
e 226 882
e 226 922
e 226 949
e 226 950
e 226 961
e 226 970
e 226 984
e 227 266
e 227 305
e 227 327
e 227 351
e 227 386
e 227 424
e 227 427
e 227 428
e 227 448
e 227 474
e 227 478
e 227 504
e 227 537
e 227 559
e 227 582
e 227 642
e 227 673
e 227 676
e 227 681
e 227 685
e 227 687
e 227 733
e 227 756
e 227 769
e 227 786
e 227 827
e 227 838
e 227 852
e 227 862
e 227 886
e 227 903
e 227 907
e 227 920
e 227 940
e 227 941
e 227 965
e 227 986
e 228 255
e 228 295
e 228 301
e 228 314
e 228 319
e 228 351
e 228 366
e 228 375
e 228 387
e 228 412
e 228 422
e 228 485
e 228 503
e 228 509
e 228 511
e 228 514
e 228 524
e 228 535
e 228 549
e 228 576
e 228 650
e 228 659
e 228 660
e 228 709
e 228 726
e 228 730
e 228 749
e 228 759
e 228 764
e 228 769
e 228 803
e 228 806
e 228 811
e 228 813
e 228 820
e 228 828
e 228 852
e 228 885
e 228 947
e 228 950
e 228 981
e 229 259
e 229 289
e 229 317
e 229 319
e 229 368
e 229 395
e 229 396
e 229 470
e 229 497
e 229 507
e 229 512
e 229 513
e 229 539
e 229 543
e 229 563
e 229 589
e 229 618
e 229 637
e 229 655
e 229 675
e 229 702
e 229 715
e 229 783
e 229 784
e 229 785
e 229 803
e 229 843
e 229 872
e 229 899
e 229 903
e 229 906
e 229 918
e 229 924
e 229 968
e 229 1000
e 230 262
e 230 265
e 230 270
e 230 283
e 230 313
e 230 334
e 230 384
e 230 420
e 230 428
e 230 446
e 230 512
e 230 514
e 230 515
e 230 530
e 230 553
e 230 560
e 230 572
e 230 581
e 230 587
e 230 591
e 230 606
e 230 639
e 230 653
e 230 675
e 230 693
e 230 695
e 230 706
e 230 711
e 230 744
e 230 750
e 230 781
e 230 788
e 230 818
e 230 855
e 230 858
e 230 862
e 230 936
e 230 956
e 230 964
e 230 966
e 230 994
e 231 300
e 231 314
e 231 328
e 231 371
e 231 383
e 231 386
e 231 389
e 231 416
e 231 429
e 231 468
e 231 526
e 231 528
e 231 568
e 231 588
e 231 621
e 231 630
e 231 635
e 231 655
e 231 675
e 231 704
e 231 747
e 231 765
e 231 772
e 231 775
e 231 833
e 231 849
e 231 865
e 231 910
e 231 914
e 231 918
e 231 941
e 232 272
e 232 290
e 232 297
e 232 309
e 232 337
e 232 342
e 232 391
e 232 400
e 232 408
e 232 415
e 232 440
e 232 471
e 232 491
e 232 562
e 232 579
e 232 585
e 232 593
e 232 621
e 232 678
e 232 725
e 232 728
e 232 743
e 232 781
e 232 824
e 232 829
e 232 831
e 232 887
e 232 891
e 232 965
e 232 967
e 232 976
e 232 991
e 233 253
e 233 254
e 233 255
e 233 287
e 233 289
e 233 290
e 233 337
e 233 340
e 233 434
e 233 454
e 233 474
e 233 501
e 233 521
e 233 551
e 233 553
e 233 581
e 233 582
e 233 583
e 233 616
e 233 627
e 233 659
e 233 672
e 233 675
e 233 677
e 233 688
e 233 696
e 233 736
e 233 740
e 233 764
e 233 768
e 233 809
e 233 810
e 233 837
e 233 857
e 233 931
e 233 934
e 233 943
e 233 944
e 233 969
e 233 990
e 233 992
e 234 278
e 234 331
e 234 343
e 234 366
e 234 375
e 234 401
e 234 406
e 234 409
e 234 411
e 234 419
e 234 428
e 234 463
e 234 474
e 234 488
e 234 491
e 234 492
e 234 649
e 234 650
e 234 671
e 234 697
e 234 698
e 234 723
e 234 726
e 234 775
e 234 780
e 234 898
e 234 907
e 234 908
e 234 914
e 234 933
e 234 938
e 234 967
e 234 971
e 235 276
e 235 280
e 235 308
e 235 309
e 235 335
e 235 391
e 235 407
e 235 410
e 235 433
e 235 438
e 235 475
e 235 482
e 235 551
e 235 585
e 235 612
e 235 622
e 235 625
e 235 659
e 235 662
e 235 666
e 235 685
e 235 690
e 235 695
e 235 714
e 235 782
e 235 783
e 235 794
e 235 828
e 235 860
e 235 925
e 235 954
e 235 987
e 235 999
e 236 303
e 236 321
e 236 329
e 236 356
e 236 372
e 236 378
e 236 380
e 236 385
e 236 436
e 236 437
e 236 443
e 236 448
e 236 465
e 236 483
e 236 509
e 236 511
e 236 554
e 236 558
e 236 562
e 236 574
e 236 587
e 236 659
e 236 667
e 236 674
e 236 682
e 236 688
e 236 698
e 236 741
e 236 764
e 236 773
e 236 803
e 236 833
e 236 875
e 236 877
e 236 940
e 236 987
e 237 269
e 237 311
e 237 314
e 237 315
e 237 323
e 237 403
e 237 421
e 237 426
e 237 459
e 237 507
e 237 542
e 237 561
e 237 576
e 237 578
e 237 638
e 237 654
e 237 667
e 237 679
e 237 692
e 237 703
e 237 709
e 237 748
e 237 759
e 237 786
e 237 848
e 237 870
e 237 881
e 237 900
e 237 921
e 237 923
e 237 929
e 237 941
e 237 948
e 237 951
e 237 964
e 237 969
e 237 985
e 237 996
e 238 275
e 238 299
e 238 301
e 238 342
e 238 368
e 238 391
e 238 443
e 238 446
e 238 452
e 238 458
e 238 459
e 238 481
e 238 541
e 238 543
e 238 582
e 238 616
e 238 658
e 238 723
e 238 771
e 238 779
e 238 788
e 238 809
e 238 871
e 238 878
e 238 882
e 238 914
e 238 941
e 238 949
e 238 955
e 238 975
e 238 977
e 238 992
e 239 264
e 239 274
e 239 302
e 239 304
e 239 307
e 239 312
e 239 331
e 239 397
e 239 419
e 239 454
e 239 469
e 239 475
e 239 480
e 239 481
e 239 482
e 239 499
e 239 513
e 239 551
e 239 557
e 239 569
e 239 572
e 239 592
e 239 597
e 239 617
e 239 623
e 239 644
e 239 658
e 239 659
e 239 662
e 239 664
e 239 667
e 239 675
e 239 699
e 239 704
e 239 756
e 239 767
e 239 793
e 239 795
e 239 826
e 239 848
e 239 855
e 239 863
e 239 880
e 239 889
e 239 952
e 239 983
e 239 988
e 239 997
e 239 998
e 240 253
e 240 276
e 240 299
e 240 309
e 240 315
e 240 327
e 240 372
e 240 400
e 240 418
e 240 424
e 240 439
e 240 444
e 240 452
e 240 484
e 240 495
e 240 540
e 240 550
e 240 584
e 240 602
e 240 658
e 240 681
e 240 739
e 240 755
e 240 826
e 240 901
e 240 904
e 240 930
e 240 999
e 241 280
e 241 283
e 241 302
e 241 419
e 241 470
e 241 484
e 241 493
e 241 504
e 241 509
e 241 525
e 241 539
e 241 548
e 241 573
e 241 577
e 241 587
e 241 646
e 241 647
e 241 686
e 241 695
e 241 716
e 241 734
e 241 735
e 241 746
e 241 797
e 241 804
e 241 840
e 241 846
e 241 873
e 241 874
e 241 881
e 241 893
e 241 903
e 241 942
e 241 958
e 241 975
e 241 982
e 241 983
e 241 988
e 241 991
e 242 317
e 242 349
e 242 357
e 242 364
e 242 372
e 242 379
e 242 395
e 242 397
e 242 448
e 242 499
e 242 519
e 242 532
e 242 533
e 242 559
e 242 624
e 242 638
e 242 663
e 242 683
e 242 719
e 242 741
e 242 777
e 242 794
e 242 822
e 242 859
e 242 865
e 242 904
e 242 924
e 242 952
e 242 969
e 242 991
e 242 992
e 243 282
e 243 310
e 243 329
e 243 355
e 243 356
e 243 409
e 243 443
e 243 456
e 243 472
e 243 483
e 243 492
e 243 523
e 243 546
e 243 565
e 243 566
e 243 568
e 243 576
e 243 580
e 243 627
e 243 637
e 243 639
e 243 647
e 243 685
e 243 692
e 243 707
e 243 708
e 243 716
e 243 733
e 243 776
e 243 792
e 243 827
e 243 877
e 243 897
e 243 898
e 243 904
e 243 917
e 243 945
e 243 951
e 243 964
e 243 973
e 244 262
e 244 282
e 244 299
e 244 351
e 244 389
e 244 431
e 244 437
e 244 497
e 244 503
e 244 527
e 244 540
e 244 591
e 244 615
e 244 627
e 244 631
e 244 639
e 244 643
e 244 648
e 244 656
e 244 682
e 244 713
e 244 716
e 244 717
e 244 781
e 244 807
e 244 808
e 244 811
e 244 878
e 244 928
e 244 952
e 244 953
e 244 971
e 244 972
e 244 987
e 244 997
e 245 270
e 245 277
e 245 296
e 245 309
e 245 318
e 245 323
e 245 387
e 245 401
e 245 417
e 245 444
e 245 455
e 245 460
e 245 477
e 245 478
e 245 483
e 245 519
e 245 551
e 245 567
e 245 580
e 245 582
e 245 632
e 245 635
e 245 638
e 245 644
e 245 650
e 245 654
e 245 669
e 245 681
e 245 682
e 245 703
e 245 711
e 245 715
e 245 768
e 245 770
e 245 776
e 245 800
e 245 839
e 245 841
e 245 850
e 245 896
e 245 929
e 245 956
e 245 958
e 245 965
e 245 989
e 246 333
e 246 340
e 246 358
e 246 382
e 246 412
e 246 443
e 246 456
e 246 475
e 246 478
e 246 480
e 246 481
e 246 505
e 246 544
e 246 570
e 246 606
e 246 647
e 246 668
e 246 693
e 246 694
e 246 748
e 246 772
e 246 774
e 246 776
e 246 786
e 246 809
e 246 827
e 246 879
e 246 929
e 246 990
e 246 995
e 246 996
e 247 263
e 247 269
e 247 280
e 247 290
e 247 370
e 247 429
e 247 463
e 247 480
e 247 491
e 247 498
e 247 501
e 247 518
e 247 529
e 247 582
e 247 600
e 247 606
e 247 612
e 247 624
e 247 651
e 247 755
e 247 762
e 247 783
e 247 795
e 247 862
e 247 871
e 247 886
e 247 963
e 248 254
e 248 274
e 248 314
e 248 325
e 248 338
e 248 349
e 248 388
e 248 390
e 248 391
e 248 457
e 248 474
e 248 478
e 248 487
e 248 496
e 248 531
e 248 564
e 248 601
e 248 632
e 248 649
e 248 652
e 248 691
e 248 730
e 248 768
e 248 815
e 248 823
e 248 845
e 248 849
e 248 862
e 248 868
e 248 875
e 248 908
e 248 914
e 248 916
e 248 950
e 248 984
e 248 993
e 249 251
e 249 270
e 249 315
e 249 317
e 249 324
e 249 347
e 249 354
e 249 377
e 249 379
e 249 382
e 249 399
e 249 439
e 249 476
e 249 477
e 249 491
e 249 494
e 249 498
e 249 499
e 249 507
e 249 608
e 249 624
e 249 674
e 249 763
e 249 769
e 249 795
e 249 826
e 249 835
e 249 855
e 249 873
e 249 886
e 249 913
e 249 928
e 249 936
e 249 944
e 250 299
e 250 378
e 250 381
e 250 387
e 250 397
e 250 405
e 250 442
e 250 454
e 250 458
e 250 479
e 250 571
e 250 594
e 250 595
e 250 636
e 250 660
e 250 672
e 250 675
e 250 685
e 250 716
e 250 721
e 250 728
e 250 741
e 250 781
e 250 813
e 250 825
e 250 827
e 250 836
e 250 857
e 250 860
e 250 890
e 250 901
e 250 924
e 250 935
e 250 941
e 250 949
e 250 981
