p edge 1000 18648
e 1 274
e 1 275
e 1 295
e 1 336
e 1 345
e 1 357
e 1 360
e 1 368
e 1 386
e 1 397
e 1 399
e 1 404
e 1 407
e 1 413
e 1 416
e 1 428
e 1 443
e 1 452
e 1 454
e 1 463
e 1 473
e 1 475
e 1 479
e 1 502
e 1 511
e 1 519
e 1 540
e 1 542
e 1 544
e 1 564
e 1 569
e 1 571
e 1 605
e 1 646
e 1 651
e 1 667
e 1 672
e 1 676
e 1 729
e 1 734
e 1 742
e 1 778
e 1 791
e 1 803
e 1 810
e 1 814
e 1 831
e 1 837
e 1 851
e 1 853
e 1 862
e 1 868
e 1 870
e 1 876
e 1 886
e 1 888
e 1 889
e 1 896
e 1 922
e 1 936
e 1 949
e 2 252
e 2 260
e 2 261
e 2 264
e 2 281
e 2 282
e 2 295
e 2 299
e 2 309
e 2 322
e 2 336
e 2 348
e 2 359
e 2 375
e 2 379
e 2 383
e 2 387
e 2 405
e 2 417
e 2 444
e 2 461
e 2 467
e 2 478
e 2 480
e 2 483
e 2 490
e 2 497
e 2 507
e 2 521
e 2 529
e 2 533
e 2 548
e 2 552
e 2 560
e 2 567
e 2 590
e 2 604
e 2 611
e 2 623
e 2 625
e 2 638
e 2 642
e 2 644
e 2 661
e 2 666
e 2 668
e 2 676
e 2 690
e 2 706
e 2 711
e 2 713
e 2 714
e 2 740
e 2 747
e 2 750
e 2 774
e 2 779
e 2 780
e 2 781
e 2 785
e 2 787
e 2 794
e 2 797
e 2 802
e 2 821
e 2 829
e 2 836
e 2 856
e 2 863
e 2 869
e 2 884
e 2 910
e 2 926
e 2 933
e 2 934
e 2 948
e 2 954
e 2 956
e 2 964
e 2 977
e 2 986
e 2 997
e 3 253
e 3 256
e 3 263
e 3 280
e 3 281
e 3 289
e 3 306
e 3 308
e 3 320
e 3 334
e 3 348
e 3 349
e 3 350
e 3 359
e 3 361
e 3 371
e 3 372
e 3 382
e 3 387
e 3 398
e 3 418
e 3 430
e 3 431
e 3 434
e 3 435
e 3 439
e 3 444
e 3 448
e 3 462
e 3 474
e 3 493
e 3 504
e 3 508
e 3 512
e 3 519
e 3 528
e 3 544
e 3 567
e 3 571
e 3 593
e 3 596
e 3 602
e 3 615
e 3 635
e 3 643
e 3 653
e 3 663
e 3 666
e 3 683
e 3 684
e 3 689
e 3 692
e 3 704
e 3 706
e 3 717
e 3 722
e 3 737
e 3 756
e 3 785
e 3 794
e 3 810
e 3 831
e 3 839
e 3 845
e 3 846
e 3 852
e 3 866
e 3 873
e 3 874
e 3 880
e 3 885
e 3 888
e 3 904
e 3 929
e 3 930
e 3 961
e 3 976
e 4 254
e 4 267
e 4 270
e 4 277
e 4 312
e 4 329
e 4 357
e 4 359
e 4 371
e 4 375
e 4 377
e 4 379
e 4 383
e 4 388
e 4 423
e 4 431
e 4 436
e 4 440
e 4 441
e 4 472
e 4 481
e 4 482
e 4 488
e 4 495
e 4 504
e 4 507
e 4 529
e 4 539
e 4 558
e 4 560
e 4 581
e 4 604
e 4 619
e 4 622
e 4 629
e 4 648
e 4 661
e 4 685
e 4 692
e 4 702
e 4 706
e 4 716
e 4 762
e 4 764
e 4 765
e 4 769
e 4 786
e 4 787
e 4 794
e 4 798
e 4 816
e 4 820
e 4 827
e 4 849
e 4 852
e 4 863
e 4 879
e 4 897
e 4 922
e 4 925
e 4 928
e 4 948
e 4 961
e 4 975
e 4 978
e 4 993
e 4 997
e 5 270
e 5 271
e 5 277
e 5 282
e 5 286
e 5 287
e 5 299
e 5 303
e 5 314
e 5 316
e 5 323
e 5 330
e 5 335
e 5 337
e 5 341
e 5 354
e 5 365
e 5 379
e 5 390
e 5 404
e 5 414
e 5 419
e 5 428
e 5 444
e 5 455
e 5 457
e 5 461
e 5 464
e 5 482
e 5 493
e 5 497
e 5 503
e 5 515
e 5 525
e 5 531
e 5 551
e 5 552
e 5 554
e 5 559
e 5 560
e 5 579
e 5 581
e 5 583
e 5 589
e 5 593
e 5 607
e 5 608
e 5 611
e 5 613
e 5 641
e 5 642
e 5 651
e 5 657
e 5 665
e 5 682
e 5 685
e 5 705
e 5 715
e 5 719
e 5 749
e 5 768
e 5 774
e 5 775
e 5 781
e 5 788
e 5 794
e 5 798
e 5 820
e 5 829
e 5 832
e 5 837
e 5 840
e 5 841
e 5 842
e 5 853
e 5 860
e 5 868
e 5 869
e 5 874
e 5 876
e 5 878
e 5 888
e 5 936
e 5 958
e 5 969
e 5 983
e 5 995
e 6 257
e 6 258
e 6 283
e 6 284
e 6 291
e 6 293
e 6 308
e 6 315
e 6 331
e 6 334
e 6 336
e 6 347
e 6 353
e 6 390
e 6 407
e 6 408
e 6 423
e 6 426
e 6 427
e 6 433
e 6 445
e 6 458
e 6 460
e 6 478
e 6 496
e 6 503
e 6 512
e 6 525
e 6 531
e 6 536
e 6 544
e 6 549
e 6 550
e 6 562
e 6 563
e 6 565
e 6 566
e 6 568
e 6 581
e 6 587
e 6 601
e 6 613
e 6 625
e 6 632
e 6 633
e 6 638
e 6 643
e 6 652
e 6 701
e 6 703
e 6 706
e 6 709
e 6 722
e 6 740
e 6 772
e 6 791
e 6 794
e 6 828
e 6 833
e 6 847
e 6 865
e 6 870
e 6 910
e 6 911
e 6 915
e 6 917
e 6 954
e 6 959
e 6 964
e 6 981
e 7 289
e 7 293
e 7 294
e 7 299
e 7 316
e 7 341
e 7 347
e 7 371
e 7 373
e 7 384
e 7 399
e 7 401
e 7 406
e 7 426
e 7 429
e 7 430
e 7 433
e 7 441
e 7 475
e 7 477
e 7 478
e 7 488
e 7 489
e 7 490
e 7 491
e 7 500
e 7 502
e 7 511
e 7 517
e 7 519
e 7 525
e 7 529
e 7 530
e 7 543
e 7 573
e 7 578
e 7 614
e 7 622
e 7 645
e 7 659
e 7 670
e 7 680
e 7 685
e 7 689
e 7 692
e 7 698
e 7 711
e 7 718
e 7 765
e 7 768
e 7 785
e 7 795
e 7 799
e 7 801
e 7 802
e 7 823
e 7 825
e 7 828
e 7 850
e 7 859
e 7 862
e 7 880
e 7 893
e 7 907
e 7 910
e 7 914
e 7 920
e 7 927
e 7 932
e 7 936
e 7 940
e 7 950
e 7 957
e 7 959
e 7 968
e 7 970
e 7 973
e 7 977
e 7 993
e 7 997
e 8 260
e 8 279
e 8 285
e 8 287
e 8 293
e 8 300
e 8 304
e 8 315
e 8 322
e 8 329
e 8 336
e 8 343
e 8 344
e 8 352
e 8 357
e 8 358
e 8 369
e 8 374
e 8 377
e 8 388
e 8 392
e 8 400
e 8 423
e 8 429
e 8 448
e 8 460
e 8 467
e 8 472
e 8 474
e 8 507
e 8 531
e 8 536
e 8 543
e 8 559
e 8 582
e 8 605
e 8 615
e 8 617
e 8 627
e 8 656
e 8 684
e 8 698
e 8 700
e 8 701
e 8 718
e 8 723
e 8 724
e 8 751
e 8 754
e 8 764
e 8 768
e 8 770
e 8 773
e 8 782
e 8 784
e 8 791
e 8 801
e 8 815
e 8 820
e 8 829
e 8 852
e 8 861
e 8 898
e 8 899
e 8 914
e 8 921
e 8 925
e 8 966
e 8 968
e 8 969
e 8 970
e 8 977
e 8 990
e 8 997
e 9 251
e 9 261
e 9 289
e 9 301
e 9 321
e 9 327
e 9 332
e 9 343
e 9 346
e 9 350
e 9 363
e 9 367
e 9 374
e 9 390
e 9 420
e 9 421
e 9 437
e 9 438
e 9 442
e 9 462
e 9 463
e 9 469
e 9 472
e 9 476
e 9 478
e 9 482
e 9 493
e 9 499
e 9 506
e 9 512
e 9 528
e 9 530
e 9 536
e 9 538
e 9 548
e 9 551
e 9 553
e 9 558
e 9 562
e 9 571
e 9 578
e 9 586
e 9 590
e 9 591
e 9 593
e 9 599
e 9 600
e 9 630
e 9 636
e 9 639
e 9 645
e 9 653
e 9 665
e 9 667
e 9 668
e 9 669
e 9 676
e 9 679
e 9 682
e 9 684
e 9 687
e 9 704
e 9 708
e 9 716
e 9 745
e 9 750
e 9 758
e 9 767
e 9 770
e 9 781
e 9 782
e 9 785
e 9 794
e 9 813
e 9 817
e 9 825
e 9 826
e 9 833
e 9 842
e 9 852
e 9 881
e 9 891
e 9 898
e 9 900
e 9 908
e 9 921
e 9 932
e 9 945
e 9 953
e 9 963
e 9 982
e 9 992
e 10 260
e 10 263
e 10 276
e 10 281
e 10 286
e 10 289
e 10 314
e 10 328
e 10 333
e 10 334
e 10 345
e 10 350
e 10 389
e 10 398
e 10 456
e 10 467
e 10 471
e 10 472
e 10 483
e 10 488
e 10 495
e 10 515
e 10 524
e 10 538
e 10 540
e 10 556
e 10 583
e 10 604
e 10 609
e 10 615
e 10 617
e 10 624
e 10 633
e 10 699
e 10 702
e 10 719
e 10 749
e 10 750
e 10 751
e 10 758
e 10 764
e 10 784
e 10 797
e 10 804
e 10 809
e 10 822
e 10 835
e 10 837
e 10 843
e 10 867
e 10 885
e 10 886
e 10 897
e 10 903
e 10 904
e 10 908
e 10 920
e 10 927
e 10 929
e 10 937
e 10 938
e 10 948
e 10 960
e 10 982
e 10 984
e 11 266
e 11 272
e 11 282
e 11 296
e 11 303
e 11 310
e 11 337
e 11 380
e 11 384
e 11 401
e 11 402
e 11 408
e 11 411
e 11 413
e 11 423
e 11 426
e 11 437
e 11 464
e 11 477
e 11 502
e 11 504
e 11 519
e 11 521
e 11 539
e 11 569
e 11 592
e 11 596
e 11 603
e 11 615
e 11 629
e 11 646
e 11 654
e 11 666
e 11 669
e 11 679
e 11 718
e 11 720
e 11 722
e 11 735
e 11 737
e 11 738
e 11 739
e 11 742
e 11 763
e 11 770
e 11 784
e 11 795
e 11 805
e 11 809
e 11 812
e 11 821
e 11 826
e 11 827
e 11 829
e 11 833
e 11 851
e 11 871
e 11 886
e 11 894
e 11 896
e 11 903
e 11 914
e 11 923
e 11 925
e 11 934
e 11 959
e 11 968
e 11 977
e 11 988
e 12 259
e 12 272
e 12 281
e 12 284
e 12 290
e 12 303
e 12 321
e 12 322
e 12 334
e 12 338
e 12 356
e 12 362
e 12 367
e 12 378
e 12 384
e 12 420
e 12 431
e 12 439
e 12 469
e 12 483
e 12 517
e 12 521
e 12 528
e 12 532
e 12 533
e 12 539
e 12 545
e 12 555
e 12 585
e 12 600
e 12 613
e 12 624
e 12 625
e 12 635
e 12 644
e 12 646
e 12 663
e 12 664
e 12 675
e 12 677
e 12 715
e 12 740
e 12 788
e 12 792
e 12 797
e 12 808
e 12 810
e 12 827
e 12 843
e 12 847
e 12 851
e 12 854
e 12 855
e 12 879
e 12 885
e 12 892
e 12 909
e 12 910
e 12 942
e 12 957
e 12 969
e 12 973
e 12 983
e 12 999
e 13 261
e 13 264
e 13 270
e 13 286
e 13 292
e 13 295
e 13 314
e 13 332
e 13 347
e 13 351
e 13 366
e 13 374
e 13 376
e 13 381
e 13 383
e 13 390
e 13 391
e 13 436
e 13 534
e 13 545
e 13 546
e 13 556
e 13 559
e 13 560
e 13 577
e 13 580
e 13 583
e 13 594
e 13 602
e 13 618
e 13 626
e 13 630
e 13 632
e 13 635
e 13 636
e 13 665
e 13 704
e 13 715
e 13 716
e 13 737
e 13 749
e 13 758
e 13 759
e 13 768
e 13 769
e 13 774
e 13 779
e 13 789
e 13 805
e 13 809
e 13 814
e 13 824
e 13 829
e 13 830
e 13 834
e 13 843
e 13 847
e 13 855
e 13 862
e 13 863
e 13 879
e 13 883
e 13 912
e 13 915
e 13 916
e 13 929
e 13 950
e 13 952
e 13 960
e 13 974
e 14 257
e 14 281
e 14 287
e 14 296
e 14 301
e 14 306
e 14 309
e 14 314
e 14 330
e 14 332
e 14 344
e 14 354
e 14 356
e 14 362
e 14 365
e 14 391
e 14 397
e 14 411
e 14 416
e 14 440
e 14 444
e 14 450
e 14 457
e 14 467
e 14 473
e 14 478
e 14 482
e 14 489
e 14 502
e 14 506
e 14 521
e 14 541
e 14 548
e 14 568
e 14 574
e 14 578
e 14 597
e 14 600
e 14 601
e 14 614
e 14 615
e 14 627
e 14 648
e 14 653
e 14 656
e 14 664
e 14 665
e 14 671
e 14 675
e 14 681
e 14 706
e 14 726
e 14 728
e 14 736
e 14 755
e 14 756
e 14 762
e 14 763
e 14 772
e 14 789
e 14 793
e 14 798
e 14 799
e 14 812
e 14 838
e 14 849
e 14 852
e 14 876
e 14 878
e 14 895
e 14 910
e 14 915
e 14 920
e 14 923
e 14 931
e 14 939
e 14 942
e 14 948
e 14 949
e 14 952
e 14 958
e 14 965
e 14 967
e 14 984
e 14 994
e 15 252
e 15 262
e 15 320
e 15 321
e 15 326
e 15 327
e 15 328
e 15 337
e 15 339
e 15 348
e 15 366
e 15 373
e 15 377
e 15 381
e 15 397
e 15 401
e 15 407
e 15 416
e 15 417
e 15 423
e 15 436
e 15 439
e 15 442
e 15 443
e 15 451
e 15 452
e 15 459
e 15 462
e 15 464
e 15 471
e 15 505
e 15 520
e 15 523
e 15 532
e 15 533
e 15 536
e 15 542
e 15 558
e 15 560
e 15 568
e 15 580
e 15 587
e 15 588
e 15 593
e 15 597
e 15 598
e 15 599
e 15 628
e 15 630
e 15 651
e 15 652
e 15 705
e 15 706
e 15 709
e 15 711
e 15 713
e 15 720
e 15 725
e 15 730
e 15 731
e 15 735
e 15 759
e 15 763
e 15 766
e 15 767
e 15 768
e 15 771
e 15 780
e 15 787
e 15 797
e 15 821
e 15 850
e 15 852
e 15 859
e 15 860
e 15 862
e 15 870
e 15 884
e 15 900
e 15 903
e 15 915
e 15 919
e 15 924
e 15 929
e 15 938
e 15 974
e 15 982
e 15 988
e 15 993
e 15 995
e 16 257
e 16 263
e 16 268
e 16 281
e 16 285
e 16 300
e 16 326
e 16 350
e 16 351
e 16 355
e 16 374
e 16 375
e 16 387
e 16 391
e 16 392
e 16 419
e 16 425
e 16 455
e 16 461
e 16 464
e 16 468
e 16 481
e 16 514
e 16 525
e 16 529
e 16 541
e 16 561
e 16 579
e 16 591
e 16 592
e 16 599
e 16 632
e 16 638
e 16 647
e 16 668
e 16 671
e 16 682
e 16 686
e 16 688
e 16 705
e 16 707
e 16 709
e 16 718
e 16 723
e 16 726
e 16 727
e 16 729
e 16 734
e 16 736
e 16 745
e 16 772
e 16 778
e 16 794
e 16 810
e 16 820
e 16 833
e 16 836
e 16 839
e 16 841
e 16 875
e 16 878
e 16 899
e 16 900
e 16 932
e 16 944
e 16 951
e 16 956
e 16 962
e 16 966
e 16 975
e 16 987
e 16 993
e 16 996
e 16 1000
e 17 253
e 17 274
e 17 293
e 17 300
e 17 306
e 17 318
e 17 371
e 17 375
e 17 388
e 17 405
e 17 413
e 17 420
e 17 439
e 17 450
e 17 452
e 17 455
e 17 457
e 17 463
e 17 483
e 17 499
e 17 519
e 17 528
e 17 542
e 17 550
e 17 557
e 17 558
e 17 560
e 17 573
e 17 576
e 17 595
e 17 608
e 17 609
e 17 612
e 17 614
e 17 615
e 17 622
e 17 624
e 17 626
e 17 627
e 17 636
e 17 642
e 17 650
e 17 652
e 17 653
e 17 676
e 17 720
e 17 722
e 17 735
e 17 744
e 17 761
e 17 771
e 17 773
e 17 774
e 17 792
e 17 799
e 17 805
e 17 820
e 17 829
e 17 832
e 17 850
e 17 866
e 17 870
e 17 873
e 17 882
e 17 894
e 17 902
e 17 964
e 17 992
e 17 998
e 18 256
e 18 269
e 18 270
e 18 277
e 18 306
e 18 325
e 18 331
e 18 343
e 18 352
e 18 356
e 18 360
e 18 363
e 18 382
e 18 389
e 18 393
e 18 398
e 18 427
e 18 430
e 18 437
e 18 443
e 18 450
e 18 452
e 18 453
e 18 455
e 18 498
e 18 511
e 18 523
e 18 528
e 18 544
e 18 546
e 18 557
e 18 562
e 18 573
e 18 578
e 18 587
e 18 590
e 18 592
e 18 595
e 18 619
e 18 635
e 18 648
e 18 654
e 18 662
e 18 677
e 18 698
e 18 709
e 18 716
e 18 727
e 18 744
e 18 745
e 18 749
e 18 751
e 18 752
e 18 767
e 18 814
e 18 839
e 18 841
e 18 848
e 18 859
e 18 867
e 18 868
e 18 882
e 18 904
e 18 917
e 18 919
e 18 924
e 18 926
e 18 928
e 18 949
e 18 962
e 18 968
e 18 976
e 18 983
e 18 985
e 18 986
e 19 261
e 19 272
e 19 287
e 19 288
e 19 289
e 19 296
e 19 300
e 19 304
e 19 309
e 19 329
e 19 335
e 19 356
e 19 363
e 19 367
e 19 369
e 19 392
e 19 405
e 19 416
e 19 440
e 19 444
e 19 465
e 19 476
e 19 477
e 19 493
e 19 494
e 19 509
e 19 542
e 19 556
e 19 570
e 19 576
e 19 599
e 19 626
e 19 636
e 19 640
e 19 644
e 19 664
e 19 708
e 19 710
e 19 726
e 19 734
e 19 736
e 19 738
e 19 742
e 19 756
e 19 761
e 19 763
e 19 768
e 19 771
e 19 797
e 19 812
e 19 823
e 19 836
e 19 841
e 19 859
e 19 870
e 19 880
e 19 886
e 19 893
e 19 905
e 19 924
e 19 936
e 19 948
e 19 955
e 19 977
e 19 981
e 19 987
e 19 988
e 19 997
e 20 263
e 20 274
e 20 289
e 20 298
e 20 349
e 20 354
e 20 360
e 20 365
e 20 381
e 20 384
e 20 391
e 20 420
e 20 422
e 20 479
e 20 538
e 20 542
e 20 564
e 20 577
e 20 580
e 20 607
e 20 619
e 20 637
e 20 638
e 20 646
e 20 656
e 20 673
e 20 674
e 20 707
e 20 713
e 20 716
e 20 725
e 20 726
e 20 727
e 20 751
e 20 752
e 20 764
e 20 769
e 20 774
e 20 780
e 20 784
e 20 801
e 20 804
e 20 808
e 20 809
e 20 813
e 20 818
e 20 824
e 20 826
e 20 839
e 20 844
e 20 858
e 20 901
e 20 903
e 20 913
e 20 915
e 20 920
e 20 921
e 20 926
e 20 938
e 20 954
e 20 955
e 20 959
e 20 963
e 20 974
e 20 982
e 20 983
e 20 988
e 20 996
e 21 262
e 21 264
e 21 273
e 21 297
e 21 299
e 21 328
e 21 336
e 21 342
e 21 345
e 21 384
e 21 394
e 21 398
e 21 409
e 21 421
e 21 422
e 21 438
e 21 440
e 21 441
e 21 446
e 21 456
e 21 472
e 21 476
e 21 488
e 21 496
e 21 503
e 21 509
e 21 511
e 21 515
e 21 528
e 21 529
e 21 534
e 21 545
e 21 577
e 21 589
e 21 590
e 21 597
e 21 599
e 21 603
e 21 606
e 21 613
e 21 619
e 21 622
e 21 625
e 21 630
e 21 656
e 21 659
e 21 663
e 21 664
e 21 665
e 21 693
e 21 704
e 21 727
e 21 733
e 21 753
e 21 759
e 21 777
e 21 780
e 21 784
e 21 788
e 21 797
e 21 803
e 21 825
e 21 830
e 21 834
e 21 839
e 21 840
e 21 842
e 21 860
e 21 864
e 21 872
e 21 879
e 21 884
e 21 896
e 21 907
e 21 921
e 21 929
e 21 942
e 21 954
e 21 956
e 21 957
e 21 959
e 21 994
e 22 266
e 22 267
e 22 278
e 22 282
e 22 287
e 22 300
e 22 322
e 22 371
e 22 372
e 22 407
e 22 412
e 22 436
e 22 438
e 22 448
e 22 449
e 22 467
e 22 492
e 22 501
e 22 521
e 22 525
e 22 528
e 22 534
e 22 559
e 22 573
e 22 594
e 22 604
e 22 611
e 22 613
e 22 620
e 22 631
e 22 644
e 22 662
e 22 672
e 22 675
e 22 680
e 22 706
e 22 722
e 22 723
e 22 763
e 22 775
e 22 780
e 22 817
e 22 822
e 22 824
e 22 826
e 22 837
e 22 858
e 22 867
e 22 877
e 22 885
e 22 887
e 22 900
e 22 902
e 22 904
e 22 936
e 22 955
e 22 967
e 22 975
e 22 980
e 22 987
e 22 996
e 22 997
e 23 251
e 23 258
e 23 271
e 23 281
e 23 282
e 23 301
e 23 310
e 23 318
e 23 336
e 23 349
e 23 351
e 23 353
e 23 365
e 23 366
e 23 367
e 23 369
e 23 387
e 23 391
e 23 402
e 23 405
e 23 412
e 23 421
e 23 425
e 23 429
e 23 435
e 23 436
e 23 438
e 23 439
e 23 448
e 23 461
e 23 473
e 23 474
e 23 513
e 23 516
e 23 519
e 23 545
e 23 546
e 23 549
e 23 565
e 23 575
e 23 595
e 23 604
e 23 607
e 23 619
e 23 620
e 23 628
e 23 631
e 23 655
e 23 677
e 23 679
e 23 704
e 23 716
e 23 724
e 23 725
e 23 726
e 23 730
e 23 738
e 23 740
e 23 741
e 23 743
e 23 748
e 23 755
e 23 763
e 23 764
e 23 771
e 23 781
e 23 790
e 23 797
e 23 823
e 23 848
e 23 864
e 23 882
e 23 887
e 23 891
e 23 898
e 23 900
e 23 915
e 23 917
e 23 919
e 23 925
e 23 932
e 23 938
e 23 946
e 23 947
e 23 951
e 23 971
e 23 986
e 23 995
e 24 256
e 24 259
e 24 262
e 24 280
e 24 282
e 24 295
e 24 325
e 24 353
e 24 398
e 24 411
e 24 414
e 24 432
e 24 453
e 24 454
e 24 459
e 24 460
e 24 468
e 24 494
e 24 501
e 24 503
e 24 513
e 24 518
e 24 536
e 24 558
e 24 570
e 24 583
e 24 586
e 24 616
e 24 617
e 24 627
e 24 653
e 24 707
e 24 714
e 24 750
e 24 762
e 24 777
e 24 789
e 24 800
e 24 806
e 24 837
e 24 840
e 24 841
e 24 866
e 24 867
e 24 868
e 24 884
e 24 889
e 24 904
e 24 920
e 24 937
e 24 941
e 24 945
e 24 957
e 24 960
e 24 964
e 24 969
e 24 970
e 24 973
e 24 980
e 24 996
e 24 999
e 25 252
e 25 254
e 25 260
e 25 288
e 25 289
e 25 291
e 25 296
e 25 298
e 25 320
e 25 335
e 25 343
e 25 387
e 25 408
e 25 412
e 25 415
e 25 442
e 25 443
e 25 445
e 25 452
e 25 462
e 25 465
e 25 470
e 25 473
e 25 476
e 25 478
e 25 485
e 25 494
e 25 499
e 25 501
e 25 511
e 25 515
e 25 525
e 25 527
e 25 554
e 25 573
e 25 581
e 25 596
e 25 600
e 25 603
e 25 604
e 25 608
e 25 614
e 25 620
e 25 624
e 25 628
e 25 660
e 25 674
e 25 676
e 25 679
e 25 686
e 25 689
e 25 690
e 25 704
e 25 707
e 25 718
e 25 721
e 25 736
e 25 751
e 25 755
e 25 794
e 25 800
e 25 808
e 25 859
e 25 861
e 25 867
e 25 869
e 25 895
e 25 898
e 25 899
e 25 912
e 25 927
e 25 931
e 25 951
e 25 952
e 25 961
e 25 983
e 25 992
e 25 997
e 26 251
e 26 270
e 26 276
e 26 283
e 26 302
e 26 305
e 26 307
e 26 315
e 26 317
e 26 318
e 26 336
e 26 342
e 26 353
e 26 373
e 26 381
e 26 387
e 26 394
e 26 398
e 26 404
e 26 428
e 26 431
e 26 435
e 26 471
e 26 490
e 26 493
e 26 499
e 26 506
e 26 522
e 26 530
e 26 534
e 26 547
e 26 556
e 26 561
e 26 570
e 26 587
e 26 592
e 26 608
e 26 616
e 26 619
e 26 627
e 26 630
e 26 636
e 26 670
e 26 671
e 26 673
e 26 701
e 26 703
e 26 719
e 26 720
e 26 723
e 26 727
e 26 753
e 26 765
e 26 774
e 26 787
e 26 792
e 26 799
e 26 822
e 26 828
e 26 833
e 26 842
e 26 852
e 26 864
e 26 875
e 26 883
e 26 887
e 26 919
e 26 922
e 26 926
e 26 955
e 26 968
e 26 982
e 26 983
e 27 252
e 27 269
e 27 279
e 27 302
e 27 310
e 27 322
e 27 325
e 27 334
e 27 335
e 27 365
e 27 383
e 27 393
e 27 407
e 27 410
e 27 415
e 27 417
e 27 419
e 27 433
e 27 445
e 27 459
e 27 473
e 27 478
e 27 483
e 27 486
e 27 488
e 27 491
e 27 511
e 27 522
e 27 528
e 27 529
e 27 557
e 27 559
e 27 560
e 27 573
e 27 580
e 27 598
e 27 602
e 27 609
e 27 613
e 27 639
e 27 640
e 27 648
e 27 653
e 27 667
e 27 675
e 27 678
e 27 679
e 27 683
e 27 716
e 27 719
e 27 740
e 27 748
e 27 756
e 27 769
e 27 774
e 27 775
e 27 777
e 27 788
e 27 821
e 27 824
e 27 859
e 27 870
e 27 874
e 27 878
e 27 886
e 27 891
e 27 898
e 27 919
e 27 924
e 27 930
e 27 949
e 27 952
e 27 970
e 27 972
e 27 977
e 27 989
e 28 265
e 28 272
e 28 285
e 28 310
e 28 312
e 28 326
e 28 331
e 28 350
e 28 352
e 28 353
e 28 356
e 28 369
e 28 372
e 28 376
e 28 382
e 28 383
e 28 394
e 28 400
e 28 402
e 28 407
e 28 410
e 28 415
e 28 423
e 28 446
e 28 461
e 28 473
e 28 482
e 28 501
e 28 509
e 28 512
e 28 524
e 28 536
e 28 542
e 28 553
e 28 561
e 28 593
e 28 599
e 28 630
e 28 638
e 28 651
e 28 672
e 28 675
e 28 679
e 28 693
e 28 712
e 28 721
e 28 730
e 28 738
e 28 743
e 28 748
e 28 750
e 28 763
e 28 769
e 28 771
e 28 772
e 28 790
e 28 803
e 28 804
e 28 811
e 28 822
e 28 848
e 28 853
e 28 872
e 28 887
e 28 889
e 28 894
e 28 909
e 28 918
e 28 920
e 28 931
e 28 939
e 28 957
e 28 958
e 28 960
e 28 967
e 28 977
e 28 983
e 29 256
e 29 273
e 29 282
e 29 286
e 29 293
e 29 296
e 29 301
e 29 307
e 29 332
e 29 335
e 29 336
e 29 364
e 29 375
e 29 391
e 29 394
e 29 481
e 29 482
e 29 486
e 29 489
e 29 502
e 29 503
e 29 517
e 29 577
e 29 583
e 29 593
e 29 600
e 29 606
e 29 607
e 29 631
e 29 636
e 29 659
e 29 660
e 29 673
e 29 678
e 29 693
e 29 699
e 29 717
e 29 759
e 29 775
e 29 786
e 29 791
e 29 796
e 29 801
e 29 806
e 29 817
e 29 822
e 29 833
e 29 848
e 29 863
e 29 874
e 29 879
e 29 893
e 29 899
e 29 900
e 29 902
e 29 916
e 29 922
e 29 929
e 29 932
e 29 933
e 29 953
e 29 954
e 29 958
e 29 967
e 29 969
e 29 970
e 29 971
e 29 987
e 30 252
e 30 255
e 30 266
e 30 280
e 30 281
e 30 284
e 30 286
e 30 295
e 30 305
e 30 306
e 30 320
e 30 346
e 30 349
e 30 368
e 30 397
e 30 403
e 30 409
e 30 410
e 30 414
e 30 429
e 30 432
e 30 445
e 30 454
e 30 484
e 30 495
e 30 511
e 30 526
e 30 549
e 30 552
e 30 553
e 30 555
e 30 562
e 30 581
e 30 587
e 30 603
e 30 610
e 30 625
e 30 631
e 30 646
e 30 664
e 30 691
e 30 702
e 30 703
e 30 712
e 30 728
e 30 733
e 30 737
e 30 741
e 30 757
e 30 765
e 30 770
e 30 773
e 30 776
e 30 778
e 30 784
e 30 801
e 30 829
e 30 830
e 30 837
e 30 840
e 30 850
e 30 867
e 30 868
e 30 870
e 30 878
e 30 884
e 30 899
e 30 915
e 30 918
e 30 921
e 30 923
e 30 975
e 30 984
e 30 989
e 30 998
e 30 1000
e 31 258
e 31 266
e 31 269
e 31 276
e 31 277
e 31 286
e 31 294
e 31 297
e 31 306
e 31 309
e 31 312
e 31 315
e 31 341
e 31 342
e 31 351
e 31 355
e 31 356
e 31 363
e 31 381
e 31 414
e 31 415
e 31 420
e 31 427
e 31 444
e 31 508
e 31 511
e 31 525
e 31 537
e 31 539
e 31 553
e 31 568
e 31 585
e 31 586
e 31 611
e 31 614
e 31 626
e 31 641
e 31 654
e 31 674
e 31 680
e 31 704
e 31 710
e 31 711
e 31 713
e 31 741
e 31 742
e 31 744
e 31 748
e 31 760
e 31 776
e 31 782
e 31 790
e 31 804
e 31 822
e 31 835
e 31 853
e 31 856
e 31 862
e 31 874
e 31 912
e 31 913
e 31 941
e 31 944
e 31 961
e 31 963
e 31 989
e 31 990
e 32 251
e 32 268
e 32 305
e 32 325
e 32 337
e 32 343
e 32 344
e 32 348
e 32 385
e 32 388
e 32 420
e 32 425
e 32 431
e 32 441
e 32 455
e 32 458
e 32 460
e 32 469
e 32 471
e 32 477
e 32 481
e 32 485
e 32 494
e 32 498
e 32 527
e 32 549
e 32 558
e 32 566
e 32 593
e 32 634
e 32 647
e 32 648
e 32 649
e 32 656
e 32 718
e 32 721
e 32 745
e 32 768
e 32 779
e 32 781
e 32 791
e 32 798
e 32 801
e 32 803
e 32 831
e 32 846
e 32 850
e 32 857
e 32 866
e 32 876
e 32 891
e 32 928
e 32 930
e 32 948
e 32 953
e 32 961
e 32 963
e 32 986
e 32 998
e 33 259
e 33 274
e 33 278
e 33 289
e 33 295
e 33 303
e 33 306
e 33 327
e 33 344
e 33 350
e 33 378
e 33 381
e 33 404
e 33 442
e 33 450
e 33 456
e 33 458
e 33 475
e 33 489
e 33 506
e 33 529
e 33 535
e 33 536
e 33 542
e 33 546
e 33 553
e 33 563
e 33 568
e 33 572
e 33 587
e 33 590
e 33 607
e 33 610
e 33 621
e 33 622
e 33 635
e 33 644
e 33 647
e 33 652
e 33 662
e 33 676
e 33 685
e 33 697
e 33 722
e 33 724
e 33 735
e 33 750
e 33 765
e 33 776
e 33 788
e 33 798
e 33 819
e 33 858
e 33 869
e 33 879
e 33 889
e 33 891
e 33 901
e 33 904
e 33 907
e 33 912
e 33 917
e 33 929
e 33 938
e 33 943
e 33 957
e 33 965
e 33 971
e 33 987
e 33 988
e 34 258
e 34 267
e 34 288
e 34 292
e 34 303
e 34 319
e 34 333
e 34 342
e 34 350
e 34 357
e 34 360
e 34 389
e 34 398
e 34 399
e 34 407
e 34 414
e 34 426
e 34 433
e 34 444
e 34 456
e 34 457
e 34 463
e 34 464
e 34 467
e 34 510
e 34 516
e 34 524
e 34 531
e 34 546
e 34 560
e 34 562
e 34 564
e 34 568
e 34 580
e 34 592
e 34 619
e 34 651
e 34 653
e 34 660
e 34 674
e 34 688
e 34 692
e 34 694
e 34 706
e 34 713
e 34 719
e 34 727
e 34 731
e 34 732
e 34 753
e 34 761
e 34 762
e 34 766
e 34 774
e 34 785
e 34 787
e 34 788
e 34 796
e 34 801
e 34 802
e 34 808
e 34 820
e 34 828
e 34 840
e 34 851
e 34 862
e 34 863
e 34 867
e 34 876
e 34 879
e 34 898
e 34 917
e 34 928
e 34 934
e 34 935
e 34 938
e 34 940
e 34 968
e 34 973
e 35 252
e 35 264
e 35 267
e 35 269
e 35 274
e 35 275
e 35 305
e 35 309
e 35 319
e 35 323
e 35 332
e 35 335
e 35 337
e 35 344
e 35 347
e 35 351
e 35 361
e 35 369
e 35 370
e 35 381
e 35 391
e 35 393
e 35 394
e 35 400
e 35 406
e 35 414
e 35 424
e 35 430
e 35 449
e 35 453
e 35 459
e 35 467
e 35 474
e 35 486
e 35 499
e 35 512
e 35 514
e 35 517
e 35 529
e 35 542
e 35 547
e 35 548
e 35 558
e 35 568
e 35 608
e 35 611
e 35 620
e 35 650
e 35 658
e 35 660
e 35 665
e 35 684
e 35 690
e 35 711
e 35 714
e 35 717
e 35 725
e 35 732
e 35 740
e 35 743
e 35 750
e 35 756
e 35 761
e 35 764
e 35 771
e 35 784
e 35 800
e 35 803
e 35 810
e 35 812
e 35 814
e 35 827
e 35 834
e 35 836
e 35 843
e 35 856
e 35 865
e 35 887
e 35 905
e 35 909
e 35 937
e 35 938
e 35 940
e 35 946
e 35 972
e 35 994
e 36 265
e 36 277
e 36 283
e 36 318
e 36 320
e 36 331
e 36 345
e 36 366
e 36 370
e 36 382
e 36 392
e 36 407
e 36 411
e 36 414
e 36 422
e 36 428
e 36 431
e 36 438
e 36 446
e 36 447
e 36 479
e 36 491
e 36 494
e 36 496
e 36 497
e 36 499
e 36 508
e 36 514
e 36 533
e 36 540
e 36 549
e 36 557
e 36 562
e 36 566
e 36 569
e 36 574
e 36 581
e 36 588
e 36 596
e 36 610
e 36 613
e 36 618
e 36 625
e 36 629
e 36 631
e 36 635
e 36 641
e 36 647
e 36 652
e 36 654
e 36 658
e 36 675
e 36 685
e 36 718
e 36 725
e 36 736
e 36 739
e 36 751
e 36 763
e 36 766
e 36 769
e 36 771
e 36 816
e 36 824
e 36 830
e 36 838
e 36 844
e 36 847
e 36 851
e 36 866
e 36 877
e 36 881
e 36 883
e 36 887
e 36 889
e 36 897
e 36 900
e 36 906
e 36 917
e 36 923
e 36 955
e 36 957
e 36 958
e 36 966
e 36 998
e 36 999
e 37 271
e 37 310
e 37 314
e 37 317
e 37 326
e 37 335
e 37 339
e 37 353
e 37 368
e 37 370
e 37 376
e 37 396
e 37 405
e 37 406
e 37 435
e 37 436
e 37 441
e 37 442
e 37 446
e 37 464
e 37 482
e 37 497
e 37 503
e 37 529
e 37 543
e 37 552
e 37 562
e 37 568
e 37 577
e 37 579
e 37 586
e 37 610
e 37 633
e 37 636
e 37 648
e 37 649
e 37 662
e 37 666
e 37 671
e 37 687
e 37 688
e 37 690
e 37 693
e 37 712
e 37 717
e 37 725
e 37 726
e 37 734
e 37 742
e 37 743
e 37 756
e 37 757
e 37 775
e 37 781
e 37 811
e 37 817
e 37 826
e 37 836
e 37 847
e 37 848
e 37 850
e 37 864
e 37 871
e 37 881
e 37 884
e 37 890
e 37 894
e 37 909
e 37 911
e 37 918
e 37 925
e 37 937
e 37 948
e 37 961
e 37 972
e 37 979
e 37 988
e 38 254
e 38 264
e 38 280
e 38 309
e 38 317
e 38 320
e 38 323
e 38 324
e 38 346
e 38 355
e 38 379
e 38 380
e 38 385
e 38 388
e 38 392
e 38 395
e 38 396
e 38 403
e 38 405
e 38 413
e 38 425
e 38 432
e 38 436
e 38 448
e 38 453
e 38 459
e 38 466
e 38 471
e 38 489
e 38 496
e 38 501
e 38 515
e 38 528
e 38 539
e 38 554
e 38 556
e 38 567
e 38 580
e 38 595
e 38 607
e 38 634
e 38 637
e 38 646
e 38 661
e 38 667
e 38 673
e 38 675
e 38 690
e 38 691
e 38 701
e 38 706
e 38 711
e 38 714
e 38 719
e 38 737
e 38 745
e 38 748
e 38 754
e 38 761
e 38 765
e 38 766
e 38 767
e 38 774
e 38 776
e 38 779
e 38 784
e 38 790
e 38 795
e 38 807
e 38 808
e 38 810
e 38 832
e 38 865
e 38 872
e 38 873
e 38 879
e 38 882
e 38 893
e 38 903
e 38 911
e 38 921
e 38 935
e 38 954
e 38 958
e 38 975
e 39 256
e 39 280
e 39 293
e 39 305
e 39 307
e 39 310
e 39 330
e 39 338
e 39 346
e 39 369
e 39 370
e 39 372
e 39 381
e 39 402
e 39 412
e 39 421
e 39 423
e 39 447
e 39 448
e 39 449
e 39 453
e 39 460
e 39 466
e 39 471
e 39 478
e 39 491
e 39 493
e 39 502
e 39 515
e 39 516
e 39 521
e 39 524
e 39 537
e 39 544
e 39 561
e 39 566
e 39 579
e 39 610
e 39 620
e 39 626
e 39 634
e 39 652
e 39 658
e 39 679
e 39 710
e 39 716
e 39 720
e 39 735
e 39 747
e 39 765
e 39 778
e 39 799
e 39 808
e 39 816
e 39 819
e 39 820
e 39 833
e 39 834
e 39 846
e 39 851
e 39 852
e 39 860
e 39 863
e 39 879
e 39 883
e 39 886
e 39 887
e 39 917
e 39 920
e 39 929
e 39 932
e 39 942
e 39 944
e 39 948
e 39 952
e 39 961
e 39 978
e 40 256
e 40 300
e 40 313
e 40 326
e 40 328
e 40 356
e 40 357
e 40 383
e 40 390
e 40 403
e 40 408
e 40 417
e 40 418
e 40 436
e 40 437
e 40 439
e 40 448
e 40 458
e 40 459
e 40 479
e 40 481
e 40 493
e 40 495
e 40 502
e 40 510
e 40 515
e 40 516
e 40 523
e 40 537
e 40 538
e 40 584
e 40 589
e 40 594
e 40 596
e 40 616
e 40 630
e 40 634
e 40 652
e 40 653
e 40 670
e 40 679
e 40 680
e 40 705
e 40 718
e 40 729
e 40 744
e 40 781
e 40 788
e 40 798
e 40 801
e 40 807
e 40 812
e 40 822
e 40 827
e 40 878
e 40 890
e 40 891
e 40 910
e 40 916
e 40 923
e 40 935
e 40 946
e 40 950
e 40 959
e 40 966
e 40 972
e 40 975
e 40 986
e 40 993
e 40 1000
e 41 251
e 41 275
e 41 280
e 41 289
e 41 301
e 41 303
e 41 311
e 41 318
e 41 335
e 41 338
e 41 358
e 41 363
e 41 367
e 41 375
e 41 381
e 41 388
e 41 397
e 41 405
e 41 410
e 41 415
e 41 423
e 41 425
e 41 426
e 41 436
e 41 470
e 41 475
e 41 477
e 41 480
e 41 481
e 41 485
e 41 487
e 41 488
e 41 511
e 41 527
e 41 570
e 41 571
e 41 578
e 41 583
e 41 614
e 41 628
e 41 638
e 41 641
e 41 644
e 41 652
e 41 655
e 41 660
e 41 661
e 41 674
e 41 676
e 41 683
e 41 693
e 41 703
e 41 727
e 41 751
e 41 773
e 41 786
e 41 788
e 41 799
e 41 810
e 41 815
e 41 816
e 41 833
e 41 839
e 41 841
e 41 849
e 41 871
e 41 874
e 41 882
e 41 884
e 41 892
e 41 917
e 41 920
e 41 934
e 41 943
e 41 964
e 41 969
e 41 973
e 41 975
e 42 292
e 42 293
e 42 294
e 42 299
e 42 336
e 42 344
e 42 363
e 42 377
e 42 378
e 42 397
e 42 398
e 42 406
e 42 407
e 42 446
e 42 468
e 42 471
e 42 485
e 42 488
e 42 519
e 42 530
e 42 537
e 42 544
e 42 551
e 42 563
e 42 583
e 42 622
e 42 626
e 42 631
e 42 638
e 42 645
e 42 656
e 42 666
e 42 681
e 42 698
e 42 700
e 42 706
e 42 720
e 42 726
e 42 737
e 42 741
e 42 743
e 42 775
e 42 789
e 42 803
e 42 811
e 42 813
e 42 818
e 42 830
e 42 832
e 42 838
e 42 853
e 42 880
e 42 881
e 42 894
e 42 896
e 42 897
e 42 918
e 42 925
e 42 935
e 42 944
e 42 957
e 42 961
e 42 990
e 42 994
e 42 999
e 43 256
e 43 272
e 43 303
e 43 310
e 43 311
e 43 326
e 43 336
e 43 344
e 43 361
e 43 368
e 43 372
e 43 380
e 43 398
e 43 399
e 43 401
e 43 421
e 43 422
e 43 440
e 43 450
e 43 453
e 43 461
e 43 466
e 43 498
e 43 527
e 43 534
e 43 539
e 43 545
e 43 561
e 43 583
e 43 586
e 43 591
e 43 596
e 43 597
e 43 613
e 43 684
e 43 693
e 43 702
e 43 721
e 43 731
e 43 743
e 43 792
e 43 837
e 43 856
e 43 891
e 43 915
e 43 938
e 43 951
e 43 954
e 43 957
e 43 960
e 43 973
e 43 981
e 43 985
e 43 986
e 44 252
e 44 254
e 44 265
e 44 266
e 44 275
e 44 276
e 44 277
e 44 279
e 44 306
e 44 318
e 44 325
e 44 356
e 44 367
e 44 368
e 44 383
e 44 388
e 44 391
e 44 397
e 44 401
e 44 411
e 44 435
e 44 444
e 44 445
e 44 446
e 44 451
e 44 458
e 44 460
e 44 461
e 44 465
e 44 469
e 44 479
e 44 483
e 44 490
e 44 491
e 44 517
e 44 521
e 44 526
e 44 536
e 44 563
e 44 567
e 44 570
e 44 573
e 44 592
e 44 640
e 44 656
e 44 660
e 44 701
e 44 719
e 44 775
e 44 779
e 44 840
e 44 889
e 44 899
e 44 904
e 44 911
e 44 922
e 44 923
e 44 925
e 44 929
e 44 932
e 44 942
e 44 953
e 44 957
e 44 958
e 44 961
e 44 976
e 44 980
e 44 988
e 44 991
e 45 263
e 45 267
e 45 270
e 45 279
e 45 281
e 45 315
e 45 322
e 45 330
e 45 334
e 45 357
e 45 359
e 45 360
e 45 375
e 45 394
e 45 402
e 45 412
e 45 414
e 45 429
e 45 432
e 45 466
e 45 483
e 45 517
e 45 518
e 45 525
e 45 528
e 45 534
e 45 535
e 45 539
e 45 542
e 45 556
e 45 580
e 45 583
e 45 586
e 45 589
e 45 610
e 45 619
e 45 626
e 45 636
e 45 643
e 45 663
e 45 665
e 45 674
e 45 682
e 45 699
e 45 709
e 45 719
e 45 732
e 45 733
e 45 754
e 45 771
e 45 781
e 45 789
e 45 791
e 45 794
e 45 796
e 45 830
e 45 856
e 45 873
e 45 877
e 45 881
e 45 889
e 45 891
e 45 913
e 45 918
e 45 930
e 45 931
e 45 937
e 45 943
e 45 948
e 45 954
e 45 972
e 45 973
e 45 975
e 46 255
e 46 260
e 46 267
e 46 270
e 46 273
e 46 276
e 46 279
e 46 287
e 46 301
e 46 311
e 46 312
e 46 313
e 46 315
e 46 327
e 46 349
e 46 354
e 46 366
e 46 388
e 46 401
e 46 423
e 46 426
e 46 437
e 46 449
e 46 459
e 46 460
e 46 475
e 46 478
e 46 487
e 46 503
e 46 514
e 46 520
e 46 552
e 46 556
e 46 557
e 46 561
e 46 599
e 46 605
e 46 610
e 46 613
e 46 617
e 46 624
e 46 645
e 46 652
e 46 673
e 46 684
e 46 696
e 46 697
e 46 710
e 46 715
e 46 719
e 46 753
e 46 767
e 46 782
e 46 793
e 46 801
e 46 813
e 46 817
e 46 833
e 46 849
e 46 866
e 46 883
e 46 886
e 46 892
e 46 899
e 46 909
e 46 910
e 46 921
e 46 925
e 46 932
e 46 941
e 46 943
e 46 946
e 46 959
e 46 969
e 46 973
e 46 979
e 47 254
e 47 255
e 47 272
e 47 278
e 47 282
e 47 290
e 47 293
e 47 301
e 47 315
e 47 322
e 47 328
e 47 333
e 47 359
e 47 366
e 47 369
e 47 389
e 47 390
e 47 395
e 47 396
e 47 421
e 47 445
e 47 446
e 47 456
e 47 458
e 47 460
e 47 496
e 47 497
e 47 508
e 47 517
e 47 522
e 47 534
e 47 551
e 47 554
e 47 568
e 47 583
e 47 588
e 47 604
e 47 608
e 47 611
e 47 619
e 47 657
e 47 675
e 47 676
e 47 680
e 47 696
e 47 698
e 47 700
e 47 708
e 47 710
e 47 715
e 47 716
e 47 720
e 47 733
e 47 743
e 47 783
e 47 792
e 47 793
e 47 796
e 47 810
e 47 811
e 47 817
e 47 828
e 47 877
e 47 882
e 47 905
e 47 912
e 47 956
e 47 995
e 48 252
e 48 286
e 48 295
e 48 306
e 48 308
e 48 318
e 48 322
e 48 334
e 48 336
e 48 341
e 48 344
e 48 352
e 48 355
e 48 363
e 48 366
e 48 369
e 48 372
e 48 376
e 48 395
e 48 411
e 48 415
e 48 419
e 48 430
e 48 441
e 48 455
e 48 459
e 48 460
e 48 462
e 48 497
e 48 511
e 48 512
e 48 516
e 48 549
e 48 559
e 48 561
e 48 591
e 48 601
e 48 659
e 48 679
e 48 682
e 48 704
e 48 705
e 48 710
e 48 728
e 48 729
e 48 732
e 48 745
e 48 768
e 48 786
e 48 787
e 48 808
e 48 834
e 48 838
e 48 848
e 48 859
e 48 861
e 48 881
e 48 884
e 48 892
e 48 896
e 48 898
e 48 900
e 48 907
e 48 910
e 48 911
e 48 922
e 48 926
e 48 942
e 48 943
e 48 954
e 48 964
e 48 968
e 48 986
e 48 1000
e 49 266
e 49 268
e 49 280
e 49 282
e 49 285
e 49 293
e 49 310
e 49 341
e 49 359
e 49 362
e 49 365
e 49 373
e 49 385
e 49 391
e 49 392
e 49 402
e 49 415
e 49 418
e 49 426
e 49 430
e 49 450
e 49 452
e 49 464
e 49 476
e 49 479
e 49 492
e 49 496
e 49 511
e 49 512
e 49 532
e 49 559
e 49 567
e 49 572
e 49 578
e 49 583
e 49 598
e 49 604
e 49 607
e 49 612
e 49 634
e 49 651
e 49 664
e 49 671
e 49 699
e 49 737
e 49 757
e 49 760
e 49 779
e 49 795
e 49 800
e 49 809
e 49 811
e 49 812
e 49 816
e 49 830
e 49 844
e 49 845
e 49 856
e 49 862
e 49 884
e 49 900
e 49 917
e 49 918
e 49 923
e 49 945
e 49 979
e 49 985
e 49 989
e 49 999
e 50 255
e 50 259
e 50 262
e 50 264
e 50 278
e 50 290
e 50 293
e 50 296
e 50 320
e 50 321
e 50 324
e 50 328
e 50 352
e 50 365
e 50 376
e 50 381
e 50 399
e 50 415
e 50 424
e 50 462
e 50 464
e 50 465
e 50 472
e 50 476
e 50 480
e 50 487
e 50 492
e 50 495
e 50 498
e 50 499
e 50 510
e 50 546
e 50 557
e 50 559
e 50 607
e 50 614
e 50 633
e 50 640
e 50 655
e 50 667
e 50 669
e 50 679
e 50 711
e 50 713
e 50 719
e 50 739
e 50 749
e 50 752
e 50 755
e 50 766
e 50 770
e 50 791
e 50 793
e 50 808
e 50 839
e 50 845
e 50 859
e 50 862
e 50 872
e 50 888
e 50 901
e 50 916
e 50 918
e 50 922
e 50 923
e 50 925
e 50 928
e 50 956
e 50 980
e 50 997
e 51 297
e 51 306
e 51 315
e 51 329
e 51 352
e 51 361
e 51 366
e 51 369
e 51 378
e 51 379
e 51 380
e 51 383
e 51 386
e 51 387
e 51 399
e 51 405
e 51 408
e 51 410
e 51 417
e 51 424
e 51 428
e 51 434
e 51 436
e 51 464
e 51 465
e 51 467
e 51 472
e 51 484
e 51 500
e 51 505
e 51 521
e 51 523
e 51 543
e 51 544
e 51 551
e 51 559
e 51 564
e 51 568
e 51 582
e 51 593
e 51 619
e 51 664
e 51 665
e 51 667
e 51 674
e 51 679
e 51 691
e 51 693
e 51 696
e 51 701
e 51 731
e 51 762
e 51 792
e 51 794
e 51 803
e 51 807
e 51 817
e 51 820
e 51 824
e 51 837
e 51 844
e 51 855
e 51 862
e 51 864
e 51 879
e 51 902
e 51 912
e 51 919
e 51 926
e 51 946
e 51 966
e 51 973
e 51 994
e 51 996
e 52 251
e 52 254
e 52 263
e 52 280
e 52 289
e 52 291
e 52 302
e 52 334
e 52 338
e 52 339
e 52 344
e 52 350
e 52 371
e 52 388
e 52 389
e 52 391
e 52 417
e 52 420
e 52 425
e 52 430
e 52 434
e 52 466
e 52 484
e 52 498
e 52 506
e 52 510
e 52 516
e 52 519
e 52 520
e 52 544
e 52 556
e 52 560
e 52 564
e 52 575
e 52 582
e 52 589
e 52 590
e 52 591
e 52 597
e 52 604
e 52 617
e 52 620
e 52 631
e 52 661
e 52 677
e 52 679
e 52 690
e 52 704
e 52 725
e 52 727
e 52 754
e 52 761
e 52 771
e 52 778
e 52 779
e 52 784
e 52 786
e 52 812
e 52 823
e 52 825
e 52 826
e 52 834
e 52 835
e 52 862
e 52 871
e 52 875
e 52 936
e 52 950
e 52 953
e 52 956
e 52 961
e 52 976
e 52 991
e 53 255
e 53 256
e 53 258
e 53 277
e 53 280
e 53 283
e 53 290
e 53 291
e 53 296
e 53 299
e 53 304
e 53 312
e 53 325
e 53 329
e 53 358
e 53 365
e 53 394
e 53 396
e 53 409
e 53 414
e 53 421
e 53 422
e 53 429
e 53 441
e 53 445
e 53 452
e 53 457
e 53 465
e 53 469
e 53 486
e 53 488
e 53 489
e 53 490
e 53 510
e 53 511
e 53 514
e 53 521
e 53 524
e 53 527
e 53 538
e 53 545
e 53 553
e 53 556
e 53 565
e 53 568
e 53 571
e 53 573
e 53 588
e 53 600
e 53 626
e 53 639
e 53 642
e 53 650
e 53 656
e 53 664
e 53 682
e 53 687
e 53 694
e 53 695
e 53 706
e 53 728
e 53 734
e 53 739
e 53 752
e 53 770
e 53 772
e 53 774
e 53 775
e 53 776
e 53 777
e 53 781
e 53 788
e 53 789
e 53 795
e 53 805
e 53 825
e 53 828
e 53 837
e 53 857
e 53 863
e 53 883
e 53 884
e 53 886
e 53 915
e 53 930
e 53 935
e 53 939
e 53 942
e 53 945
e 53 971
e 53 979
e 53 980
e 53 983
e 54 252
e 54 253
e 54 255
e 54 260
e 54 274
e 54 275
e 54 284
e 54 315
e 54 327
e 54 329
e 54 336
e 54 368
e 54 381
e 54 411
e 54 427
e 54 442
e 54 445
e 54 451
e 54 472
e 54 485
e 54 496
e 54 502
e 54 519
e 54 527
e 54 532
e 54 533
e 54 534
e 54 535
e 54 537
e 54 538
e 54 558
e 54 559
e 54 562
e 54 565
e 54 566
e 54 582
e 54 603
e 54 609
e 54 622
e 54 623
e 54 644
e 54 649
e 54 657
e 54 663
e 54 670
e 54 688
e 54 693
e 54 716
e 54 727
e 54 731
e 54 746
e 54 755
e 54 762
e 54 769
e 54 783
e 54 793
e 54 796
e 54 883
e 54 925
e 54 927
e 54 931
e 54 946
e 54 947
e 54 958
e 54 960
e 54 970
e 54 971
e 54 978
e 54 991
e 55 261
e 55 264
e 55 266
e 55 269
e 55 270
e 55 272
e 55 295
e 55 296
e 55 333
e 55 339
e 55 347
e 55 351
e 55 362
e 55 367
e 55 372
e 55 377
e 55 379
e 55 381
e 55 387
e 55 411
e 55 477
e 55 478
e 55 489
e 55 501
e 55 511
e 55 512
e 55 515
e 55 520
e 55 522
e 55 523
e 55 541
e 55 545
e 55 553
e 55 555
e 55 566
e 55 567
e 55 578
e 55 582
e 55 591
e 55 597
e 55 612
e 55 643
e 55 662
e 55 671
e 55 711
e 55 712
e 55 717
e 55 736
e 55 746
e 55 751
e 55 763
e 55 765
e 55 776
e 55 782
e 55 790
e 55 811
e 55 819
e 55 840
e 55 847
e 55 850
e 55 855
e 55 859
e 55 880
e 55 886
e 55 892
e 55 894
e 55 897
e 55 915
e 55 917
e 55 919
e 55 921
e 55 946
e 55 955
e 55 960
e 55 970
e 55 973
e 56 256
e 56 262
e 56 263
e 56 278
e 56 282
e 56 292
e 56 299
e 56 311
e 56 360
e 56 369
e 56 376
e 56 397
e 56 401
e 56 408
e 56 438
e 56 443
e 56 501
e 56 504
e 56 535
e 56 542
e 56 543
e 56 559
e 56 566
e 56 580
e 56 584
e 56 588
e 56 594
e 56 596
e 56 601
e 56 605
e 56 607
e 56 620
e 56 629
e 56 637
e 56 650
e 56 677
e 56 684
e 56 686
e 56 695
e 56 702
e 56 703
e 56 718
e 56 722
e 56 723
e 56 735
e 56 744
e 56 746
e 56 761
e 56 773
e 56 778
e 56 783
e 56 786
e 56 787
e 56 802
e 56 821
e 56 863
e 56 895
e 56 898
e 56 932
e 56 968
e 56 969
e 56 985
e 57 251
e 57 264
e 57 265
e 57 269
e 57 276
e 57 285
e 57 294
e 57 310
e 57 318
e 57 321
e 57 326
e 57 332
e 57 340
e 57 349
e 57 381
e 57 418
e 57 422
e 57 430
e 57 433
e 57 457
e 57 464
e 57 470
e 57 484
e 57 499
e 57 504
e 57 505
e 57 511
e 57 512
e 57 533
e 57 536
e 57 555
e 57 562
e 57 564
e 57 568
e 57 578
e 57 587
e 57 611
e 57 620
e 57 633
e 57 634
e 57 637
e 57 643
e 57 645
e 57 658
e 57 664
e 57 672
e 57 709
e 57 716
e 57 718
e 57 719
e 57 724
e 57 726
e 57 729
e 57 749
e 57 758
e 57 759
e 57 760
e 57 764
e 57 766
e 57 768
e 57 787
e 57 794
e 57 826
e 57 828
e 57 845
e 57 854
e 57 868
e 57 881
e 57 884
e 57 890
e 57 891
e 57 903
e 57 905
e 57 907
e 57 923
e 57 940
e 57 947
e 57 949
e 57 952
e 57 960
e 57 966
e 57 977
e 57 979
e 58 251
e 58 253
e 58 265
e 58 270
e 58 283
e 58 286
e 58 304
e 58 369
e 58 371
e 58 374
e 58 384
e 58 399
e 58 410
e 58 420
e 58 423
e 58 438
e 58 447
e 58 450
e 58 462
e 58 469
e 58 472
e 58 474
e 58 477
e 58 521
e 58 522
e 58 530
e 58 544
e 58 559
e 58 569
e 58 578
e 58 579
e 58 580
e 58 590
e 58 592
e 58 607
e 58 624
e 58 625
e 58 651
e 58 652
e 58 669
e 58 678
e 58 683
e 58 687
e 58 689
e 58 694
e 58 726
e 58 727
e 58 750
e 58 768
e 58 777
e 58 778
e 58 784
e 58 805
e 58 817
e 58 819
e 58 821
e 58 826
e 58 833
e 58 847
e 58 865
e 58 870
e 58 883
e 58 884
e 58 906
e 58 912
e 58 915
e 58 947
e 58 998
e 59 251
e 59 255
e 59 260
e 59 275
e 59 296
e 59 299
e 59 305
e 59 306
e 59 312
e 59 374
e 59 376
e 59 378
e 59 382
e 59 402
e 59 406
e 59 410
e 59 411
e 59 417
e 59 427
e 59 442
e 59 448
e 59 456
e 59 463
e 59 465
e 59 477
e 59 482
e 59 495
e 59 497
e 59 509
e 59 524
e 59 528
e 59 533
e 59 534
e 59 548
e 59 566
e 59 584
e 59 591
e 59 606
e 59 610
e 59 622
e 59 625
e 59 651
e 59 656
e 59 658
e 59 661
e 59 673
e 59 688
e 59 689
e 59 714
e 59 719
e 59 725
e 59 728
e 59 730
e 59 739
e 59 747
e 59 752
e 59 755
e 59 759
e 59 764
e 59 784
e 59 796
e 59 808
e 59 826
e 59 847
e 59 855
e 59 872
e 59 880
e 59 884
e 59 889
e 59 906
e 59 919
e 59 923
e 59 929
e 59 962
e 59 994
e 59 995
e 60 262
e 60 263
e 60 266
e 60 304
e 60 339
e 60 342
e 60 346
e 60 350
e 60 363
e 60 368
e 60 408
e 60 415
e 60 429
e 60 436
e 60 446
e 60 461
e 60 462
e 60 466
e 60 470
e 60 472
e 60 474
e 60 517
e 60 520
e 60 529
e 60 539
e 60 563
e 60 572
e 60 576
e 60 580
e 60 584
e 60 592
e 60 595
e 60 610
e 60 618
e 60 621
e 60 670
e 60 674
e 60 677
e 60 682
e 60 698
e 60 704
e 60 720
e 60 721
e 60 747
e 60 748
e 60 761
e 60 775
e 60 785
e 60 790
e 60 791
e 60 798
e 60 805
e 60 838
e 60 840
e 60 841
e 60 846
e 60 854
e 60 864
e 60 865
e 60 896
e 60 907
e 60 916
e 60 919
e 60 944
e 60 945
e 60 950
e 60 953
e 60 954
e 60 960
e 60 963
e 60 978
e 60 999
e 61 256
e 61 260
e 61 264
e 61 276
e 61 298
e 61 302
e 61 303
e 61 311
e 61 327
e 61 336
e 61 340
e 61 345
e 61 348
e 61 350
e 61 351
e 61 358
e 61 361
e 61 364
e 61 375
e 61 389
e 61 409
e 61 418
e 61 432
e 61 438
e 61 453
e 61 461
e 61 462
e 61 481
e 61 483
e 61 501
e 61 504
e 61 521
e 61 528
e 61 548
e 61 561
e 61 606
e 61 618
e 61 643
e 61 649
e 61 658
e 61 666
e 61 672
e 61 674
e 61 679
e 61 689
e 61 690
e 61 694
e 61 696
e 61 716
e 61 717
e 61 721
e 61 731
e 61 738
e 61 759
e 61 766
e 61 771
e 61 791
e 61 794
e 61 798
e 61 805
e 61 831
e 61 841
e 61 867
e 61 873
e 61 878
e 61 897
e 61 898
e 61 908
e 61 923
e 61 924
e 61 937
e 61 941
e 61 947
e 61 956
e 61 964
e 61 967
e 61 987
e 61 994
e 62 267
e 62 269
e 62 292
e 62 295
e 62 304
e 62 306
e 62 314
e 62 321
e 62 324
e 62 332
e 62 334
e 62 346
e 62 367
e 62 388
e 62 390
e 62 392
e 62 398
e 62 408
e 62 422
e 62 423
e 62 429
e 62 452
e 62 457
e 62 463
e 62 489
e 62 499
e 62 502
e 62 506
e 62 509
e 62 512
e 62 516
e 62 518
e 62 526
e 62 534
e 62 538
e 62 546
e 62 555
e 62 558
e 62 577
e 62 579
e 62 588
e 62 599
e 62 621
e 62 635
e 62 645
e 62 649
e 62 651
e 62 652
e 62 666
e 62 674
e 62 692
e 62 700
e 62 706
e 62 710
e 62 752
e 62 753
e 62 763
e 62 764
e 62 775
e 62 788
e 62 793
e 62 804
e 62 808
e 62 815
e 62 831
e 62 855
e 62 876
e 62 890
e 62 895
e 62 902
e 62 909
e 62 941
e 62 973
e 62 982
e 62 984
e 62 988
e 62 994
e 62 995
e 62 998
e 63 273
e 63 275
e 63 281
e 63 285
e 63 289
e 63 290
e 63 291
e 63 292
e 63 301
e 63 302
e 63 314
e 63 328
e 63 330
e 63 343
e 63 363
e 63 373
e 63 390
e 63 407
e 63 413
e 63 416
e 63 420
e 63 436
e 63 438
e 63 450
e 63 461
e 63 462
e 63 484
e 63 514
e 63 515
e 63 518
e 63 519
e 63 526
e 63 537
e 63 543
e 63 546
e 63 549
e 63 552
e 63 596
e 63 600
e 63 603
e 63 604
e 63 611
e 63 615
e 63 633
e 63 642
e 63 664
e 63 679
e 63 700
e 63 704
e 63 712
e 63 720
e 63 726
e 63 732
e 63 736
e 63 740
e 63 747
e 63 764
e 63 779
e 63 791
e 63 801
e 63 821
e 63 840
e 63 867
e 63 926
e 63 958
e 63 975
e 63 998
e 64 266
e 64 269
e 64 278
e 64 303
e 64 330
e 64 337
e 64 345
e 64 349
e 64 350
e 64 351
e 64 353
e 64 354
e 64 384
e 64 394
e 64 395
e 64 404
e 64 414
e 64 445
e 64 448
e 64 474
e 64 486
e 64 489
e 64 494
e 64 505
e 64 508
e 64 530
e 64 538
e 64 547
e 64 555
e 64 566
e 64 574
e 64 585
e 64 587
e 64 593
e 64 594
e 64 598
e 64 599
e 64 609
e 64 638
e 64 649
e 64 655
e 64 668
e 64 672
e 64 677
e 64 691
e 64 694
e 64 697
e 64 736
e 64 739
e 64 743
e 64 744
e 64 745
e 64 797
e 64 813
e 64 815
e 64 818
e 64 821
e 64 828
e 64 836
e 64 840
e 64 850
e 64 865
e 64 892
e 64 920
e 64 945
e 64 949
e 64 966
e 64 998
e 65 264
e 65 265
e 65 270
e 65 271
e 65 283
e 65 287
e 65 294
e 65 307
e 65 326
e 65 362
e 65 368
e 65 389
e 65 434
e 65 440
e 65 460
e 65 478
e 65 482
e 65 486
e 65 487
e 65 492
e 65 497
e 65 498
e 65 502
e 65 512
e 65 517
e 65 537
e 65 541
e 65 561
e 65 580
e 65 597
e 65 601
e 65 615
e 65 640
e 65 645
e 65 657
e 65 672
e 65 674
e 65 678
e 65 706
e 65 710
e 65 716
e 65 721
e 65 739
e 65 784
e 65 788
e 65 790
e 65 791
e 65 792
e 65 797
e 65 808
e 65 816
e 65 821
e 65 841
e 65 866
e 65 878
e 65 879
e 65 885
e 65 889
e 65 909
e 65 912
e 65 916
e 65 928
e 65 930
e 65 933
e 65 942
e 65 944
e 65 945
e 65 947
e 65 969
e 65 974
e 65 989
e 65 991
e 65 995
e 66 254
e 66 256
e 66 262
e 66 266
e 66 268
e 66 274
e 66 288
e 66 295
e 66 327
e 66 343
e 66 371
e 66 375
e 66 377
e 66 380
e 66 381
e 66 384
e 66 387
e 66 395
e 66 400
e 66 410
e 66 423
e 66 431
e 66 434
e 66 463
e 66 467
e 66 490
e 66 506
e 66 515
e 66 539
e 66 552
e 66 556
e 66 557
e 66 558
e 66 560
e 66 563
e 66 588
e 66 591
e 66 593
e 66 594
e 66 596
e 66 602
e 66 619
e 66 650
e 66 652
e 66 665
e 66 673
e 66 683
e 66 685
e 66 691
e 66 697
e 66 717
e 66 736
e 66 750
e 66 758
e 66 770
e 66 771
e 66 782
e 66 800
e 66 803
e 66 825
e 66 829
e 66 834
e 66 836
e 66 837
e 66 843
e 66 851
e 66 883
e 66 899
e 66 916
e 66 941
e 66 946
e 66 957
e 66 972
e 66 995
e 67 253
e 67 279
e 67 284
e 67 315
e 67 325
e 67 332
e 67 342
e 67 347
e 67 361
e 67 369
e 67 377
e 67 387
e 67 391
e 67 394
e 67 401
e 67 411
e 67 418
e 67 434
e 67 443
e 67 445
e 67 456
e 67 469
e 67 482
e 67 484
e 67 485
e 67 492
e 67 534
e 67 545
e 67 569
e 67 576
e 67 588
e 67 610
e 67 613
e 67 616
e 67 627
e 67 651
e 67 684
e 67 692
e 67 702
e 67 733
e 67 735
e 67 756
e 67 760
e 67 767
e 67 770
e 67 788
e 67 795
e 67 821
e 67 834
e 67 849
e 67 850
e 67 854
e 67 871
e 67 872
e 67 884
e 67 905
e 67 916
e 67 917
e 67 962
e 67 974
e 67 982
e 67 994
e 67 1000
e 68 253
e 68 256
e 68 258
e 68 289
e 68 294
e 68 300
e 68 301
e 68 307
e 68 328
e 68 343
e 68 346
e 68 364
e 68 369
e 68 378
e 68 383
e 68 392
e 68 393
e 68 394
e 68 402
e 68 404
e 68 409
e 68 432
e 68 460
e 68 472
e 68 486
e 68 499
e 68 502
e 68 521
e 68 526
e 68 542
e 68 554
e 68 562
e 68 565
e 68 571
e 68 573
e 68 576
e 68 596
e 68 610
e 68 622
e 68 627
e 68 635
e 68 638
e 68 653
e 68 666
e 68 670
e 68 671
e 68 687
e 68 705
e 68 711
e 68 715
e 68 734
e 68 760
e 68 765
e 68 771
e 68 822
e 68 832
e 68 843
e 68 845
e 68 848
e 68 854
e 68 859
e 68 861
e 68 890
e 68 893
e 68 899
e 68 901
e 68 905
e 68 911
e 68 917
e 68 922
e 68 923
e 68 925
e 68 944
e 68 948
e 68 960
e 68 961
e 68 975
e 68 983
e 68 985
e 68 989
e 68 993
e 68 998
e 69 265
e 69 272
e 69 277
e 69 278
e 69 293
e 69 343
e 69 347
e 69 354
e 69 358
e 69 373
e 69 377
e 69 378
e 69 379
e 69 405
e 69 407
e 69 429
e 69 438
e 69 443
e 69 444
e 69 446
e 69 448
e 69 477
e 69 482
e 69 489
e 69 495
e 69 518
e 69 528
e 69 538
e 69 545
e 69 552
e 69 565
e 69 567
e 69 602
e 69 623
e 69 634
e 69 657
e 69 660
e 69 663
e 69 669
e 69 671
e 69 679
e 69 680
e 69 698
e 69 702
e 69 716
e 69 730
e 69 732
e 69 746
e 69 750
e 69 760
e 69 774
e 69 792
e 69 800
e 69 802
e 69 809
e 69 831
e 69 846
e 69 855
e 69 857
e 69 872
e 69 882
e 69 900
e 69 905
e 69 906
e 69 909
e 69 910
e 69 931
e 69 940
e 69 945
e 69 964
e 69 978
e 69 979
e 70 270
e 70 276
e 70 290
e 70 292
e 70 293
e 70 304
e 70 314
e 70 323
e 70 334
e 70 342
e 70 350
e 70 363
e 70 389
e 70 394
e 70 395
e 70 397
e 70 402
e 70 405
e 70 406
e 70 407
e 70 408
e 70 412
e 70 419
e 70 429
e 70 459
e 70 478
e 70 493
e 70 511
e 70 514
e 70 519
e 70 540
e 70 541
e 70 550
e 70 556
e 70 560
e 70 561
e 70 580
e 70 603
e 70 639
e 70 648
e 70 651
e 70 652
e 70 664
e 70 672
e 70 675
e 70 676
e 70 677
e 70 707
e 70 730
e 70 742
e 70 746
e 70 770
e 70 772
e 70 783
e 70 791
e 70 792
e 70 800
e 70 801
e 70 816
e 70 827
e 70 829
e 70 841
e 70 842
e 70 849
e 70 856
e 70 871
e 70 875
e 70 888
e 70 904
e 70 938
e 70 942
e 70 948
e 70 956
e 70 971
e 71 252
e 71 266
e 71 274
e 71 280
e 71 288
e 71 299
e 71 304
e 71 310
e 71 322
e 71 327
e 71 359
e 71 364
e 71 365
e 71 368
e 71 384
e 71 389
e 71 426
e 71 438
e 71 456
e 71 474
e 71 486
e 71 497
e 71 499
e 71 531
e 71 535
e 71 541
e 71 551
e 71 554
e 71 559
e 71 574
e 71 591
e 71 597
e 71 601
e 71 614
e 71 618
e 71 622
e 71 626
e 71 627
e 71 654
e 71 660
e 71 661
e 71 669
e 71 680
e 71 681
e 71 684
e 71 693
e 71 703
e 71 714
e 71 725
e 71 761
e 71 791
e 71 793
e 71 798
e 71 802
e 71 823
e 71 837
e 71 845
e 71 848
e 71 861
e 71 874
e 71 889
e 71 930
e 71 934
e 71 946
e 71 949
e 71 969
e 71 978
e 71 982
e 72 276
e 72 300
e 72 316
e 72 319
e 72 321
e 72 339
e 72 379
e 72 388
e 72 400
e 72 404
e 72 410
e 72 414
e 72 433
e 72 455
e 72 457
e 72 464
e 72 472
e 72 501
e 72 513
e 72 524
e 72 526
e 72 534
e 72 545
e 72 585
e 72 588
e 72 593
e 72 604
e 72 614
e 72 636
e 72 653
e 72 656
e 72 657
e 72 667
e 72 675
e 72 679
e 72 682
e 72 689
e 72 722
e 72 725
e 72 732
e 72 741
e 72 743
e 72 785
e 72 787
e 72 796
e 72 801
e 72 805
e 72 821
e 72 822
e 72 841
e 72 848
e 72 851
e 72 858
e 72 861
e 72 892
e 72 916
e 72 921
e 72 930
e 72 935
e 72 940
e 72 941
e 72 944
e 72 958
e 72 966
e 72 977
e 72 988
e 73 278
e 73 279
e 73 280
e 73 283
e 73 288
e 73 293
e 73 299
e 73 303
e 73 310
e 73 317
e 73 323
e 73 326
e 73 338
e 73 352
e 73 367
e 73 381
e 73 397
e 73 413
e 73 429
e 73 440
e 73 473
e 73 477
e 73 481
e 73 486
e 73 496
e 73 518
e 73 521
e 73 529
e 73 536
e 73 541
e 73 624
e 73 630
e 73 642
e 73 680
e 73 701
e 73 703
e 73 713
e 73 717
e 73 747
e 73 754
e 73 761
e 73 774
e 73 781
e 73 784
e 73 785
e 73 788
e 73 792
e 73 820
e 73 830
e 73 833
e 73 837
e 73 856
e 73 860
e 73 877
e 73 886
e 73 898
e 73 901
e 73 906
e 73 937
e 73 987
e 74 251
e 74 253
e 74 262
e 74 265
e 74 282
e 74 285
e 74 286
e 74 289
e 74 296
e 74 339
e 74 341
e 74 347
e 74 354
e 74 362
e 74 370
e 74 372
e 74 396
e 74 400
e 74 410
e 74 411
e 74 415
e 74 420
e 74 433
e 74 437
e 74 441
e 74 444
e 74 447
e 74 453
e 74 454
e 74 471
e 74 478
e 74 483
e 74 486
e 74 498
e 74 506
e 74 511
e 74 513
e 74 518
e 74 535
e 74 556
e 74 565
e 74 574
e 74 576
e 74 585
e 74 586
e 74 595
e 74 611
e 74 615
e 74 639
e 74 674
e 74 723
e 74 727
e 74 734
e 74 738
e 74 743
e 74 747
e 74 751
e 74 758
e 74 760
e 74 775
e 74 777
e 74 781
e 74 783
e 74 790
e 74 794
e 74 799
e 74 804
e 74 819
e 74 822
e 74 823
e 74 841
e 74 844
e 74 847
e 74 861
e 74 867
e 74 892
e 74 938
e 74 967
e 74 973
e 74 983
e 74 1000
e 75 265
e 75 271
e 75 272
e 75 277
e 75 279
e 75 311
e 75 330
e 75 361
e 75 367
e 75 378
e 75 386
e 75 392
e 75 402
e 75 403
e 75 408
e 75 425
e 75 431
e 75 434
e 75 444
e 75 450
e 75 457
e 75 463
e 75 467
e 75 480
e 75 517
e 75 522
e 75 526
e 75 530
e 75 536
e 75 552
e 75 554
e 75 574
e 75 581
e 75 587
e 75 610
e 75 612
e 75 626
e 75 641
e 75 654
e 75 656
e 75 666
e 75 670
e 75 673
e 75 674
e 75 675
e 75 679
e 75 684
e 75 689
e 75 696
e 75 708
e 75 743
e 75 744
e 75 746
e 75 758
e 75 778
e 75 785
e 75 815
e 75 816
e 75 819
e 75 820
e 75 826
e 75 827
e 75 835
e 75 839
e 75 867
e 75 875
e 75 881
e 75 882
e 75 889
e 75 890
e 75 903
e 75 908
e 75 918
e 75 944
e 75 971
e 75 979
e 75 981
e 75 984
e 75 985
e 75 989
e 76 261
e 76 263
e 76 271
e 76 293
e 76 311
e 76 326
e 76 348
e 76 360
e 76 406
e 76 426
e 76 435
e 76 441
e 76 450
e 76 488
e 76 489
e 76 503
e 76 511
e 76 512
e 76 526
e 76 553
e 76 554
e 76 558
e 76 566
e 76 567
e 76 568
e 76 586
e 76 595
e 76 608
e 76 609
e 76 612
e 76 625
e 76 638
e 76 643
e 76 663
e 76 669
e 76 674
e 76 686
e 76 697
e 76 707
e 76 708
e 76 710
e 76 715
e 76 725
e 76 732
e 76 738
e 76 757
e 76 777
e 76 784
e 76 792
e 76 834
e 76 836
e 76 846
e 76 847
e 76 852
e 76 868
e 76 874
e 76 890
e 76 893
e 76 900
e 76 904
e 76 917
e 76 930
e 76 931
e 76 935
e 76 938
e 76 954
e 76 955
e 76 961
e 76 977
e 76 981
e 76 985
e 76 986
e 77 262
e 77 266
e 77 279
e 77 283
e 77 288
e 77 290
e 77 294
e 77 296
e 77 298
e 77 302
e 77 306
e 77 337
e 77 349
e 77 357
e 77 359
e 77 368
e 77 370
e 77 373
e 77 392
e 77 400
e 77 409
e 77 423
e 77 446
e 77 448
e 77 455
e 77 464
e 77 472
e 77 485
e 77 490
e 77 493
e 77 497
e 77 510
e 77 559
e 77 583
e 77 593
e 77 607
e 77 638
e 77 648
e 77 649
e 77 657
e 77 662
e 77 674
e 77 688
e 77 706
e 77 718
e 77 723
e 77 725
e 77 742
e 77 755
e 77 759
e 77 782
e 77 797
e 77 798
e 77 805
e 77 811
e 77 812
e 77 818
e 77 826
e 77 834
e 77 840
e 77 863
e 77 871
e 77 874
e 77 902
e 77 916
e 77 926
e 77 967
e 77 982
e 77 990
e 78 251
e 78 253
e 78 255
e 78 264
e 78 266
e 78 269
e 78 277
e 78 298
e 78 300
e 78 310
e 78 311
e 78 312
e 78 336
e 78 337
e 78 338
e 78 344
e 78 352
e 78 361
e 78 373
e 78 383
e 78 421
e 78 429
e 78 431
e 78 437
e 78 461
e 78 491
e 78 493
e 78 500
e 78 506
e 78 507
e 78 514
e 78 516
e 78 542
e 78 549
e 78 551
e 78 554
e 78 561
e 78 571
e 78 573
e 78 605
e 78 608
e 78 613
e 78 629
e 78 640
e 78 645
e 78 650
e 78 651
e 78 653
e 78 675
e 78 677
e 78 691
e 78 711
e 78 717
e 78 745
e 78 753
e 78 766
e 78 775
e 78 784
e 78 792
e 78 793
e 78 820
e 78 837
e 78 849
e 78 850
e 78 854
e 78 856
e 78 862
e 78 866
e 78 874
e 78 878
e 78 879
e 78 887
e 78 891
e 78 899
e 78 901
e 78 935
e 78 936
e 78 938
e 78 943
e 78 954
e 78 955
e 78 956
e 78 964
e 78 965
e 78 976
e 79 253
e 79 258
e 79 260
e 79 301
e 79 309
e 79 310
e 79 316
e 79 327
e 79 338
e 79 351
e 79 357
e 79 361
e 79 374
e 79 385
e 79 387
e 79 393
e 79 397
e 79 401
e 79 411
e 79 418
e 79 437
e 79 444
e 79 461
e 79 463
e 79 468
e 79 506
e 79 512
e 79 534
e 79 539
e 79 563
e 79 568
e 79 572
e 79 589
e 79 603
e 79 607
e 79 609
e 79 610
e 79 620
e 79 621
e 79 623
e 79 659
e 79 676
e 79 681
e 79 685
e 79 691
e 79 720
e 79 735
e 79 744
e 79 749
e 79 753
e 79 762
e 79 765
e 79 777
e 79 796
e 79 824
e 79 825
e 79 831
e 79 838
e 79 840
e 79 846
e 79 849
e 79 857
e 79 858
e 79 870
e 79 883
e 79 890
e 79 891
e 79 898
e 79 912
e 79 931
e 79 939
e 79 940
e 79 956
e 79 965
e 79 968
e 79 980
e 79 986
e 79 988
e 79 997
e 80 257
e 80 261
e 80 267
e 80 270
e 80 287
e 80 291
e 80 313
e 80 317
e 80 319
e 80 340
e 80 349
e 80 352
e 80 363
e 80 377
e 80 390
e 80 398
e 80 400
e 80 425
e 80 449
e 80 453
e 80 469
e 80 473
e 80 491
e 80 495
e 80 513
e 80 523
e 80 537
e 80 553
e 80 562
e 80 565
e 80 578
e 80 583
e 80 591
e 80 603
e 80 606
e 80 612
e 80 615
e 80 633
e 80 641
e 80 646
e 80 660
e 80 670
e 80 676
e 80 681
e 80 685
e 80 723
e 80 746
e 80 748
e 80 774
e 80 789
e 80 852
e 80 855
e 80 858
e 80 864
e 80 869
e 80 886
e 80 895
e 80 905
e 80 911
e 80 932
e 80 943
e 80 944
e 80 949
e 80 961
e 80 962
e 80 968
e 80 975
e 80 996
e 81 258
e 81 263
e 81 269
e 81 274
e 81 277
e 81 279
e 81 281
e 81 294
e 81 304
e 81 307
e 81 309
e 81 311
e 81 315
e 81 323
e 81 333
e 81 347
e 81 352
e 81 374
e 81 387
e 81 399
e 81 408
e 81 428
e 81 431
e 81 434
e 81 437
e 81 448
e 81 450
e 81 456
e 81 473
e 81 484
e 81 486
e 81 492
e 81 502
e 81 515
e 81 523
e 81 534
e 81 537
e 81 538
e 81 542
e 81 554
e 81 555
e 81 561
e 81 567
e 81 578
e 81 584
e 81 591
e 81 599
e 81 602
e 81 612
e 81 638
e 81 641
e 81 652
e 81 654
e 81 655
e 81 656
e 81 661
e 81 685
e 81 689
e 81 702
e 81 720
e 81 742
e 81 747
e 81 751
e 81 773
e 81 785
e 81 795
e 81 800
e 81 806
e 81 807
e 81 809
e 81 830
e 81 848
e 81 870
e 81 878
e 81 879
e 81 881
e 81 888
e 81 890
e 81 900
e 81 905
e 81 910
e 81 912
e 81 925
e 81 933
e 81 935
e 81 937
e 81 942
e 81 955
e 81 972
e 81 988
e 81 998
e 82 268
e 82 277
e 82 280
e 82 282
e 82 288
e 82 305
e 82 326
e 82 345
e 82 356
e 82 381
e 82 384
e 82 391
e 82 392
e 82 393
e 82 400
e 82 405
e 82 414
e 82 419
e 82 451
e 82 455
e 82 498
e 82 517
e 82 556
e 82 572
e 82 575
e 82 584
e 82 600
e 82 612
e 82 615
e 82 623
e 82 641
e 82 661
e 82 681
e 82 686
e 82 687
e 82 700
e 82 720
e 82 728
e 82 731
e 82 736
e 82 746
e 82 758
e 82 768
e 82 798
e 82 803
e 82 808
e 82 809
e 82 816
e 82 822
e 82 862
e 82 870
e 82 896
e 82 898
e 82 900
e 82 927
e 82 934
e 82 937
e 82 938
e 82 939
e 82 957
e 82 962
e 82 977
e 82 978
e 82 986
e 82 996
e 83 262
e 83 282
e 83 285
e 83 291
e 83 294
e 83 306
e 83 312
e 83 321
e 83 324
e 83 330
e 83 332
e 83 337
e 83 339
e 83 345
e 83 354
e 83 357
e 83 364
e 83 368
e 83 369
e 83 390
e 83 405
e 83 416
e 83 422
e 83 425
e 83 450
e 83 469
e 83 482
e 83 493
e 83 499
e 83 512
e 83 518
e 83 539
e 83 587
e 83 597
e 83 601
e 83 608
e 83 613
e 83 618
e 83 619
e 83 627
e 83 629
e 83 658
e 83 660
e 83 668
e 83 675
e 83 701
e 83 714
e 83 719
e 83 720
e 83 721
e 83 723
e 83 733
e 83 752
e 83 756
e 83 789
e 83 790
e 83 799
e 83 807
e 83 831
e 83 840
e 83 841
e 83 842
e 83 843
e 83 855
e 83 865
e 83 881
e 83 882
e 83 900
e 83 911
e 83 912
e 83 919
e 83 922
e 83 928
e 83 931
e 83 938
e 83 944
e 83 948
e 83 949
e 83 950
e 83 952
e 83 954
e 83 969
e 83 972
e 83 975
e 83 982
e 83 995
e 84 267
e 84 272
e 84 279
e 84 281
e 84 288
e 84 294
e 84 298
e 84 301
e 84 309
e 84 345
e 84 350
e 84 354
e 84 357
e 84 374
e 84 394
e 84 409
e 84 410
e 84 411
e 84 414
e 84 431
e 84 444
e 84 465
e 84 479
e 84 482
e 84 483
e 84 484
e 84 490
e 84 503
e 84 508
e 84 512
e 84 516
e 84 528
e 84 537
e 84 542
e 84 566
e 84 567
e 84 569
e 84 578
e 84 621
e 84 622
e 84 627
e 84 634
e 84 637
e 84 640
e 84 642
e 84 668
e 84 682
e 84 699
e 84 700
e 84 711
e 84 722
e 84 723
e 84 728
e 84 732
e 84 745
e 84 750
e 84 752
e 84 769
e 84 774
e 84 794
e 84 821
e 84 830
e 84 832
e 84 847
e 84 867
e 84 871
e 84 892
e 84 898
e 84 908
e 84 939
e 84 946
e 84 949
e 84 964
e 84 970
e 84 976
e 84 987
e 84 998
e 84 999
e 85 257
e 85 269
e 85 272
e 85 273
e 85 283
e 85 291
e 85 335
e 85 351
e 85 355
e 85 365
e 85 369
e 85 375
e 85 409
e 85 410
e 85 424
e 85 450
e 85 452
e 85 461
e 85 492
e 85 502
e 85 512
e 85 523
e 85 534
e 85 538
e 85 540
e 85 577
e 85 590
e 85 609
e 85 618
e 85 634
e 85 640
e 85 661
e 85 662
e 85 667
e 85 680
e 85 684
e 85 686
e 85 707
e 85 727
e 85 732
e 85 745
e 85 751
e 85 762
e 85 765
e 85 771
e 85 798
e 85 800
e 85 816
e 85 824
e 85 826
e 85 832
e 85 836
e 85 838
e 85 840
e 85 844
e 85 846
e 85 847
e 85 853
e 85 854
e 85 855
e 85 860
e 85 868
e 85 869
e 85 879
e 85 880
e 85 881
e 85 882
e 85 913
e 85 915
e 85 916
e 85 920
e 85 927
e 85 945
e 85 946
e 85 949
e 85 953
e 85 969
e 85 974
e 85 975
e 85 979
e 85 986
e 85 992
e 85 1000
e 86 251
e 86 252
e 86 259
e 86 263
e 86 286
e 86 307
e 86 341
e 86 355
e 86 365
e 86 377
e 86 379
e 86 380
e 86 392
e 86 393
e 86 401
e 86 410
e 86 416
e 86 420
e 86 441
e 86 443
e 86 449
e 86 504
e 86 528
e 86 530
e 86 544
e 86 548
e 86 553
e 86 557
e 86 564
e 86 584
e 86 602
e 86 615
e 86 616
e 86 630
e 86 641
e 86 662
e 86 663
e 86 678
e 86 681
e 86 711
e 86 717
e 86 727
e 86 731
e 86 758
e 86 760
e 86 789
e 86 802
e 86 832
e 86 836
e 86 842
e 86 855
e 86 859
e 86 873
e 86 874
e 86 877
e 86 888
e 86 895
e 86 921
e 86 928
e 86 933
e 86 936
e 86 938
e 86 943
e 86 971
e 86 973
e 86 987
e 86 995
e 87 255
e 87 269
e 87 274
e 87 280
e 87 296
e 87 301
e 87 329
e 87 342
e 87 357
e 87 382
e 87 388
e 87 395
e 87 396
e 87 398
e 87 399
e 87 403
e 87 417
e 87 427
e 87 428
e 87 430
e 87 447
e 87 451
e 87 452
e 87 491
e 87 493
e 87 528
e 87 578
e 87 586
e 87 601
e 87 618
e 87 633
e 87 635
e 87 640
e 87 658
e 87 665
e 87 666
e 87 672
e 87 673
e 87 689
e 87 692
e 87 717
e 87 721
e 87 733
e 87 743
e 87 749
e 87 756
e 87 767
e 87 774
e 87 776
e 87 783
e 87 793
e 87 807
e 87 812
e 87 814
e 87 817
e 87 849
e 87 854
e 87 865
e 87 873
e 87 875
e 87 881
e 87 890
e 87 897
e 87 899
e 87 903
e 87 905
e 87 924
e 87 930
e 87 933
e 87 935
e 87 961
e 87 975
e 87 990
e 87 992
e 88 261
e 88 270
e 88 299
e 88 305
e 88 314
e 88 321
e 88 324
e 88 330
e 88 331
e 88 334
e 88 345
e 88 346
e 88 375
e 88 377
e 88 382
e 88 410
e 88 411
e 88 423
e 88 425
e 88 430
e 88 437
e 88 441
e 88 442
e 88 447
e 88 450
e 88 455
e 88 465
e 88 471
e 88 492
e 88 502
e 88 508
e 88 514
e 88 523
e 88 554
e 88 561
e 88 563
e 88 565
e 88 574
e 88 575
e 88 584
e 88 590
e 88 595
e 88 615
e 88 622
e 88 635
e 88 643
e 88 647
e 88 648
e 88 657
e 88 685
e 88 700
e 88 710
e 88 730
e 88 732
e 88 738
e 88 745
e 88 759
e 88 761
e 88 773
e 88 784
e 88 788
e 88 793
e 88 831
e 88 838
e 88 860
e 88 869
e 88 879
e 88 888
e 88 904
e 88 908
e 88 911
e 88 920
e 88 935
e 88 951
e 88 953
e 88 954
e 88 963
e 88 964
e 88 965
e 88 967
e 88 974
e 88 975
e 88 980
e 88 982
e 88 984
e 89 251
e 89 274
e 89 296
e 89 302
e 89 304
e 89 319
e 89 321
e 89 328
e 89 336
e 89 365
e 89 383
e 89 394
e 89 413
e 89 414
e 89 430
e 89 442
e 89 447
e 89 464
e 89 466
e 89 471
e 89 473
e 89 496
e 89 500
e 89 515
e 89 516
e 89 517
e 89 520
e 89 526
e 89 550
e 89 552
e 89 564
e 89 602
e 89 622
e 89 627
e 89 636
e 89 643
e 89 646
e 89 675
e 89 683
e 89 690
e 89 704
e 89 714
e 89 725
e 89 726
e 89 731
e 89 733
e 89 747
e 89 754
e 89 797
e 89 805
e 89 844
e 89 858
e 89 872
e 89 873
e 89 877
e 89 889
e 89 924
e 89 928
e 89 943
e 89 945
e 89 959
e 89 970
e 89 980
e 89 981
e 89 984
e 89 998
e 90 254
e 90 257
e 90 261
e 90 266
e 90 271
e 90 294
e 90 307
e 90 318
e 90 320
e 90 323
e 90 325
e 90 329
e 90 333
e 90 340
e 90 344
e 90 352
e 90 385
e 90 387
e 90 395
e 90 399
e 90 408
e 90 415
e 90 439
e 90 441
e 90 450
e 90 461
e 90 464
e 90 468
e 90 470
e 90 482
e 90 488
e 90 490
e 90 494
e 90 505
e 90 506
e 90 508
e 90 513
e 90 514
e 90 518
e 90 539
e 90 550
e 90 551
e 90 561
e 90 582
e 90 583
e 90 609
e 90 660
e 90 662
e 90 679
e 90 681
e 90 686
e 90 687
e 90 688
e 90 701
e 90 706
e 90 712
e 90 722
e 90 724
e 90 725
e 90 749
e 90 753
e 90 754
e 90 759
e 90 778
e 90 790
e 90 820
e 90 823
e 90 824
e 90 825
e 90 830
e 90 832
e 90 841
e 90 866
e 90 869
e 90 871
e 90 876
e 90 886
e 90 898
e 90 937
e 90 942
e 90 951
e 90 964
e 90 983
e 90 991
e 91 256
e 91 265
e 91 275
e 91 276
e 91 278
e 91 299
e 91 306
e 91 307
e 91 311
e 91 318
e 91 327
e 91 333
e 91 337
e 91 342
e 91 344
e 91 353
e 91 363
e 91 384
e 91 400
e 91 424
e 91 431
e 91 449
e 91 451
e 91 452
e 91 468
e 91 471
e 91 484
e 91 495
e 91 510
e 91 511
e 91 523
e 91 528
e 91 544
e 91 548
e 91 550
e 91 553
e 91 556
e 91 565
e 91 578
e 91 619
e 91 649
e 91 655
e 91 659
e 91 681
e 91 689
e 91 695
e 91 700
e 91 717
e 91 726
e 91 733
e 91 741
e 91 757
e 91 782
e 91 796
e 91 820
e 91 835
e 91 836
e 91 838
e 91 849
e 91 865
e 91 873
e 91 902
e 91 905
e 91 921
e 91 930
e 91 954
e 91 955
e 91 976
e 91 989
e 91 995
e 91 1000
e 92 262
e 92 264
e 92 273
e 92 293
e 92 303
e 92 305
e 92 334
e 92 342
e 92 344
e 92 360
e 92 373
e 92 375
e 92 376
e 92 388
e 92 404
e 92 418
e 92 429
e 92 438
e 92 449
e 92 453
e 92 475
e 92 495
e 92 502
e 92 503
e 92 511
e 92 525
e 92 533
e 92 543
e 92 547
e 92 553
e 92 555
e 92 571
e 92 577
e 92 582
e 92 588
e 92 596
e 92 599
e 92 608
e 92 610
e 92 623
e 92 629
e 92 631
e 92 645
e 92 648
e 92 661
e 92 668
e 92 676
e 92 687
e 92 688
e 92 718
e 92 724
e 92 772
e 92 794
e 92 803
e 92 809
e 92 810
e 92 814
e 92 823
e 92 827
e 92 830
e 92 850
e 92 861
e 92 876
e 92 880
e 92 892
e 92 894
e 92 922
e 92 987
e 92 998
e 93 259
e 93 262
e 93 313
e 93 339
e 93 345
e 93 364
e 93 370
e 93 374
e 93 386
e 93 395
e 93 396
e 93 398
e 93 401
e 93 407
e 93 421
e 93 429
e 93 433
e 93 442
e 93 457
e 93 463
e 93 469
e 93 480
e 93 503
e 93 514
e 93 516
e 93 548
e 93 551
e 93 565
e 93 577
e 93 586
e 93 589
e 93 596
e 93 613
e 93 616
e 93 644
e 93 654
e 93 656
e 93 660
e 93 663
e 93 672
e 93 673
e 93 675
e 93 676
e 93 682
e 93 686
e 93 708
e 93 713
e 93 715
e 93 718
e 93 727
e 93 742
e 93 745
e 93 760
e 93 786
e 93 790
e 93 793
e 93 794
e 93 796
e 93 812
e 93 814
e 93 817
e 93 828
e 93 834
e 93 841
e 93 857
e 93 860
e 93 865
e 93 872
e 93 879
e 93 884
e 93 887
e 93 891
e 93 894
e 93 915
e 93 928
e 93 949
e 93 959
e 93 960
e 93 999
e 94 260
e 94 261
e 94 293
e 94 300
e 94 311
e 94 340
e 94 345
e 94 363
e 94 365
e 94 385
e 94 392
e 94 426
e 94 472
e 94 474
e 94 480
e 94 490
e 94 492
e 94 507
e 94 526
e 94 527
e 94 552
e 94 556
e 94 558
e 94 561
e 94 579
e 94 591
e 94 592
e 94 593
e 94 600
e 94 601
e 94 619
e 94 624
e 94 625
e 94 641
e 94 653
e 94 655
e 94 675
e 94 697
e 94 720
e 94 757
e 94 762
e 94 779
e 94 790
e 94 797
e 94 821
e 94 822
e 94 846
e 94 853
e 94 854
e 94 861
e 94 863
e 94 871
e 94 898
e 94 923
e 94 938
e 94 939
e 94 943
e 94 947
e 94 958
e 94 959
e 94 984
e 94 991
e 95 251
e 95 252
e 95 259
e 95 265
e 95 277
e 95 278
e 95 283
e 95 288
e 95 291
e 95 314
e 95 320
e 95 344
e 95 358
e 95 363
e 95 364
e 95 375
e 95 383
e 95 387
e 95 389
e 95 399
e 95 404
e 95 432
e 95 453
e 95 465
e 95 488
e 95 490
e 95 492
e 95 493
e 95 495
e 95 497
e 95 503
e 95 504
e 95 506
e 95 520
e 95 525
e 95 528
e 95 531
e 95 533
e 95 542
e 95 575
e 95 581
e 95 582
e 95 589
e 95 597
e 95 603
e 95 605
e 95 611
e 95 630
e 95 642
e 95 644
e 95 650
e 95 667
e 95 709
e 95 711
e 95 720
e 95 731
e 95 735
e 95 749
e 95 762
e 95 770
e 95 774
e 95 777
e 95 781
e 95 800
e 95 809
e 95 831
e 95 837
e 95 840
e 95 843
e 95 846
e 95 866
e 95 884
e 95 894
e 95 896
e 95 897
e 95 908
e 95 930
e 95 938
e 95 959
e 95 979
e 96 257
e 96 263
e 96 265
e 96 272
e 96 275
e 96 278
e 96 286
e 96 291
e 96 292
e 96 294
e 96 315
e 96 321
e 96 324
e 96 337
e 96 341
e 96 350
e 96 356
e 96 365
e 96 368
e 96 371
e 96 372
e 96 377
e 96 388
e 96 416
e 96 419
e 96 423
e 96 439
e 96 447
e 96 458
e 96 463
e 96 467
e 96 478
e 96 490
e 96 491
e 96 497
e 96 501
e 96 531
e 96 535
e 96 538
e 96 552
e 96 562
e 96 570
e 96 605
e 96 609
e 96 619
e 96 627
e 96 636
e 96 666
e 96 669
e 96 696
e 96 698
e 96 708
e 96 738
e 96 752
e 96 761
e 96 762
e 96 772
e 96 781
e 96 785
e 96 812
e 96 838
e 96 842
e 96 848
e 96 850
e 96 859
e 96 863
e 96 864
e 96 865
e 96 868
e 96 890
e 96 916
e 96 921
e 96 937
e 96 945
e 96 948
e 96 958
e 96 970
e 96 977
e 96 979
e 96 980
e 96 991
e 96 994
e 96 995
e 96 999
e 97 251
e 97 259
e 97 264
e 97 267
e 97 270
e 97 277
e 97 278
e 97 283
e 97 285
e 97 286
e 97 292
e 97 300
e 97 304
e 97 306
e 97 325
e 97 339
e 97 350
e 97 356
e 97 384
e 97 403
e 97 406
e 97 430
e 97 447
e 97 453
e 97 459
e 97 471
e 97 478
e 97 479
e 97 481
e 97 513
e 97 514
e 97 523
e 97 533
e 97 552
e 97 553
e 97 580
e 97 590
e 97 591
e 97 608
e 97 618
e 97 621
e 97 622
e 97 643
e 97 650
e 97 654
e 97 668
e 97 675
e 97 678
e 97 682
e 97 689
e 97 699
e 97 704
e 97 725
e 97 726
e 97 732
e 97 748
e 97 752
e 97 757
e 97 773
e 97 775
e 97 796
e 97 820
e 97 822
e 97 828
e 97 840
e 97 863
e 97 874
e 97 880
e 97 892
e 97 895
e 97 900
e 97 901
e 97 918
e 97 922
e 97 927
e 97 929
e 97 937
e 97 945
e 97 962
e 97 971
e 97 972
e 97 974
e 97 999
e 98 255
e 98 257
e 98 266
e 98 268
e 98 274
e 98 275
e 98 288
e 98 292
e 98 296
e 98 299
e 98 301
e 98 315
e 98 328
e 98 349
e 98 352
e 98 354
e 98 374
e 98 377
e 98 387
e 98 390
e 98 395
e 98 397
e 98 399
e 98 404
e 98 407
e 98 409
e 98 419
e 98 426
e 98 429
e 98 431
e 98 437
e 98 474
e 98 487
e 98 495
e 98 500
e 98 511
e 98 533
e 98 539
e 98 553
e 98 579
e 98 582
e 98 600
e 98 601
e 98 606
e 98 612
e 98 631
e 98 671
e 98 683
e 98 706
e 98 717
e 98 733
e 98 742
e 98 750
e 98 767
e 98 773
e 98 789
e 98 821
e 98 829
e 98 836
e 98 839
e 98 840
e 98 843
e 98 847
e 98 849
e 98 864
e 98 879
e 98 896
e 98 898
e 98 900
e 98 903
e 98 909
e 98 924
e 98 928
e 98 939
e 98 952
e 98 959
e 98 960
e 98 997
e 99 257
e 99 260
e 99 262
e 99 285
e 99 295
e 99 319
e 99 322
e 99 331
e 99 341
e 99 349
e 99 354
e 99 357
e 99 361
e 99 365
e 99 369
e 99 371
e 99 398
e 99 453
e 99 456
e 99 462
e 99 473
e 99 483
e 99 503
e 99 507
e 99 518
e 99 548
e 99 549
e 99 550
e 99 554
e 99 568
e 99 572
e 99 573
e 99 609
e 99 611
e 99 625
e 99 626
e 99 636
e 99 644
e 99 659
e 99 663
e 99 667
e 99 675
e 99 678
e 99 697
e 99 701
e 99 702
e 99 707
e 99 721
e 99 722
e 99 730
e 99 746
e 99 750
e 99 758
e 99 762
e 99 768
e 99 769
e 99 778
e 99 794
e 99 809
e 99 819
e 99 826
e 99 839
e 99 871
e 99 874
e 99 882
e 99 888
e 99 917
e 99 918
e 99 928
e 99 930
e 99 937
e 99 940
e 99 941
e 99 963
e 99 967
e 99 987
e 99 1000
e 100 254
e 100 284
e 100 288
e 100 305
e 100 311
e 100 313
e 100 318
e 100 321
e 100 331
e 100 344
e 100 346
e 100 350
e 100 359
e 100 367
e 100 371
e 100 389
e 100 421
e 100 424
e 100 466
e 100 472
e 100 474
e 100 494
e 100 497
e 100 502
e 100 517
e 100 518
e 100 521
e 100 530
e 100 536
e 100 571
e 100 585
e 100 598
e 100 600
e 100 626
e 100 662
e 100 665
e 100 668
e 100 669
e 100 670
e 100 693
e 100 703
e 100 713
e 100 719
e 100 720
e 100 722
e 100 735
e 100 736
e 100 737
e 100 739
e 100 742
e 100 754
e 100 760
e 100 767
e 100 805
e 100 817
e 100 832
e 100 836
e 100 850
e 100 856
e 100 883
e 100 891
e 100 892
e 100 900
e 100 903
e 100 904
e 100 907
e 100 909
e 100 913
e 100 916
e 100 917
e 100 935
e 100 936
e 100 937
e 100 943
e 100 951
e 100 953
e 100 978
e 100 992
e 100 996
e 100 997
e 100 1000
e 101 257
e 101 262
e 101 263
e 101 279
e 101 295
e 101 302
e 101 325
e 101 328
e 101 338
e 101 341
e 101 372
e 101 385
e 101 393
e 101 395
e 101 406
e 101 411
e 101 412
e 101 416
e 101 417
e 101 429
e 101 438
e 101 448
e 101 459
e 101 464
e 101 466
e 101 472
e 101 507
e 101 508
e 101 509
e 101 516
e 101 523
e 101 547
e 101 560
e 101 561
e 101 567
e 101 569
e 101 574
e 101 579
e 101 586
e 101 593
e 101 610
e 101 620
e 101 624
e 101 638
e 101 641
e 101 655
e 101 660
e 101 683
e 101 721
e 101 725
e 101 732
e 101 736
e 101 740
e 101 786
e 101 847
e 101 853
e 101 854
e 101 869
e 101 886
e 101 901
e 101 905
e 101 906
e 101 921
e 101 928
e 101 936
e 101 944
e 101 948
e 101 953
e 101 970
e 101 987
e 102 252
e 102 257
e 102 261
e 102 264
e 102 270
e 102 274
e 102 275
e 102 278
e 102 282
e 102 287
e 102 291
e 102 295
e 102 298
e 102 300
e 102 314
e 102 319
e 102 320
e 102 321
e 102 335
e 102 338
e 102 399
e 102 409
e 102 430
e 102 443
e 102 453
e 102 457
e 102 477
e 102 489
e 102 490
e 102 511
e 102 516
e 102 518
e 102 529
e 102 560
e 102 578
e 102 596
e 102 609
e 102 612
e 102 629
e 102 633
e 102 635
e 102 637
e 102 639
e 102 644
e 102 664
e 102 681
e 102 686
e 102 690
e 102 711
e 102 714
e 102 721
e 102 725
e 102 734
e 102 752
e 102 789
e 102 801
e 102 818
e 102 846
e 102 855
e 102 863
e 102 890
e 102 894
e 102 921
e 102 931
e 102 937
e 102 950
e 102 951
e 102 953
e 102 992
e 103 272
e 103 274
e 103 276
e 103 293
e 103 294
e 103 304
e 103 305
e 103 311
e 103 316
e 103 329
e 103 333
e 103 354
e 103 356
e 103 358
e 103 378
e 103 402
e 103 407
e 103 418
e 103 421
e 103 431
e 103 446
e 103 447
e 103 458
e 103 459
e 103 462
e 103 466
e 103 467
e 103 483
e 103 499
e 103 517
e 103 518
e 103 528
e 103 529
e 103 547
e 103 560
e 103 561
e 103 563
e 103 567
e 103 586
e 103 587
e 103 590
e 103 602
e 103 609
e 103 624
e 103 625
e 103 629
e 103 635
e 103 638
e 103 653
e 103 664
e 103 667
e 103 670
e 103 691
e 103 695
e 103 711
e 103 725
e 103 728
e 103 729
e 103 740
e 103 743
e 103 753
e 103 765
e 103 769
e 103 780
e 103 790
e 103 792
e 103 798
e 103 847
e 103 849
e 103 866
e 103 893
e 103 896
e 103 905
e 103 911
e 103 919
e 103 931
e 103 940
e 103 944
e 103 945
e 103 956
e 103 969
e 103 970
e 103 984
e 103 990
e 103 999
e 104 276
e 104 301
e 104 320
e 104 327
e 104 351
e 104 356
e 104 366
e 104 372
e 104 388
e 104 390
e 104 406
e 104 416
e 104 444
e 104 446
e 104 451
e 104 468
e 104 477
e 104 483
e 104 508
e 104 516
e 104 524
e 104 535
e 104 542
e 104 547
e 104 567
e 104 574
e 104 588
e 104 611
e 104 613
e 104 615
e 104 631
e 104 632
e 104 666
e 104 669
e 104 677
e 104 680
e 104 690
e 104 694
e 104 721
e 104 730
e 104 774
e 104 784
e 104 793
e 104 803
e 104 804
e 104 806
e 104 821
e 104 830
e 104 831
e 104 835
e 104 847
e 104 864
e 104 874
e 104 879
e 104 887
e 104 890
e 104 897
e 104 903
e 104 919
e 104 928
e 104 929
e 104 932
e 104 934
e 104 952
e 104 962
e 104 969
e 104 992
e 104 998
e 105 254
e 105 263
e 105 271
e 105 274
e 105 280
e 105 303
e 105 341
e 105 351
e 105 357
e 105 373
e 105 384
e 105 388
e 105 416
e 105 419
e 105 421
e 105 436
e 105 440
e 105 443
e 105 449
e 105 457
e 105 465
e 105 479
e 105 495
e 105 500
e 105 502
e 105 508
e 105 519
e 105 548
e 105 549
e 105 551
e 105 557
e 105 558
e 105 559
e 105 573
e 105 583
e 105 596
e 105 602
e 105 611
e 105 624
e 105 645
e 105 648
e 105 666
e 105 692
e 105 695
e 105 706
e 105 712
e 105 718
e 105 719
e 105 720
e 105 726
e 105 731
e 105 735
e 105 749
e 105 762
e 105 774
e 105 776
e 105 785
e 105 791
e 105 815
e 105 817
e 105 826
e 105 847
e 105 866
e 105 870
e 105 873
e 105 877
e 105 878
e 105 879
e 105 883
e 105 884
e 105 889
e 105 891
e 105 925
e 105 928
e 105 932
e 105 942
e 105 957
e 105 960
e 105 974
e 105 982
e 105 987
e 106 264
e 106 265
e 106 267
e 106 277
e 106 284
e 106 289
e 106 291
e 106 310
e 106 312
e 106 314
e 106 320
e 106 351
e 106 373
e 106 390
e 106 408
e 106 423
e 106 433
e 106 437
e 106 441
e 106 447
e 106 454
e 106 469
e 106 481
e 106 487
e 106 493
e 106 496
e 106 519
e 106 520
e 106 526
e 106 528
e 106 536
e 106 538
e 106 541
e 106 542
e 106 556
e 106 563
e 106 564
e 106 585
e 106 587
e 106 588
e 106 592
e 106 603
e 106 620
e 106 632
e 106 659
e 106 660
e 106 685
e 106 687
e 106 691
e 106 705
e 106 707
e 106 716
e 106 735
e 106 758
e 106 785
e 106 790
e 106 806
e 106 808
e 106 809
e 106 812
e 106 815
e 106 827
e 106 837
e 106 838
e 106 839
e 106 846
e 106 851
e 106 855
e 106 865
e 106 866
e 106 869
e 106 870
e 106 872
e 106 897
e 106 909
e 106 918
e 106 952
e 106 958
e 106 972
e 106 986
e 106 988
e 106 996
e 107 257
e 107 259
e 107 272
e 107 276
e 107 285
e 107 299
e 107 314
e 107 331
e 107 337
e 107 344
e 107 348
e 107 350
e 107 355
e 107 386
e 107 400
e 107 406
e 107 410
e 107 414
e 107 417
e 107 422
e 107 423
e 107 431
e 107 437
e 107 443
e 107 452
e 107 456
e 107 466
e 107 476
e 107 495
e 107 501
e 107 504
e 107 518
e 107 531
e 107 534
e 107 536
e 107 539
e 107 540
e 107 550
e 107 558
e 107 583
e 107 593
e 107 597
e 107 627
e 107 629
e 107 630
e 107 634
e 107 647
e 107 649
e 107 687
e 107 712
e 107 725
e 107 730
e 107 738
e 107 755
e 107 768
e 107 800
e 107 816
e 107 819
e 107 830
e 107 832
e 107 836
e 107 846
e 107 870
e 107 888
e 107 893
e 107 913
e 107 915
e 107 945
e 107 955
e 107 965
e 107 971
e 107 976
e 107 980
e 107 983
e 107 989
e 107 993
e 108 258
e 108 261
e 108 263
e 108 280
e 108 290
e 108 304
e 108 306
e 108 308
e 108 350
e 108 353
e 108 375
e 108 385
e 108 394
e 108 396
e 108 402
e 108 413
e 108 414
e 108 447
e 108 479
e 108 486
e 108 515
e 108 525
e 108 526
e 108 532
e 108 533
e 108 543
e 108 551
e 108 565
e 108 578
e 108 609
e 108 610
e 108 623
e 108 645
e 108 646
e 108 653
e 108 674
e 108 675
e 108 676
e 108 678
e 108 683
e 108 699
e 108 714
e 108 715
e 108 716
e 108 718
e 108 732
e 108 738
e 108 760
e 108 764
e 108 786
e 108 790
e 108 813
e 108 814
e 108 834
e 108 836
e 108 838
e 108 847
e 108 857
e 108 862
e 108 865
e 108 875
e 108 888
e 108 891
e 108 910
e 108 933
e 108 937
e 108 952
e 108 956
e 108 961
e 108 962
e 108 990
e 108 998
e 109 256
e 109 289
e 109 310
e 109 314
e 109 326
e 109 340
e 109 344
e 109 351
e 109 352
e 109 360
e 109 363
e 109 364
e 109 384
e 109 387
e 109 388
e 109 392
e 109 429
e 109 431
e 109 436
e 109 441
e 109 443
e 109 452
e 109 464
e 109 474
e 109 479
e 109 504
e 109 523
e 109 530
e 109 537
e 109 544
e 109 554
e 109 559
e 109 566
e 109 568
e 109 602
e 109 613
e 109 620
e 109 647
e 109 666
e 109 673
e 109 679
e 109 683
e 109 684
e 109 699
e 109 700
e 109 704
e 109 708
e 109 710
e 109 724
e 109 725
e 109 742
e 109 765
e 109 775
e 109 804
e 109 824
e 109 826
e 109 831
e 109 841
e 109 850
e 109 865
e 109 869
e 109 872
e 109 877
e 109 883
e 109 900
e 109 906
e 109 916
e 109 917
e 109 934
e 109 939
e 109 944
e 109 957
e 109 966
e 109 968
e 109 975
e 110 273
e 110 299
e 110 305
e 110 313
e 110 319
e 110 339
e 110 345
e 110 350
e 110 365
e 110 378
e 110 388
e 110 390
e 110 406
e 110 421
e 110 428
e 110 444
e 110 459
e 110 480
e 110 496
e 110 500
e 110 516
e 110 539
e 110 540
e 110 542
e 110 544
e 110 545
e 110 576
e 110 602
e 110 604
e 110 616
e 110 617
e 110 623
e 110 626
e 110 628
e 110 631
e 110 638
e 110 655
e 110 658
e 110 665
e 110 672
e 110 675
e 110 676
e 110 677
e 110 686
e 110 687
e 110 689
e 110 692
e 110 693
e 110 699
e 110 724
e 110 729
e 110 740
e 110 747
e 110 749
e 110 752
e 110 753
e 110 755
e 110 760
e 110 763
e 110 765
e 110 781
e 110 784
e 110 790
e 110 820
e 110 837
e 110 838
e 110 839
e 110 852
e 110 853
e 110 855
e 110 861
e 110 865
e 110 868
e 110 878
e 110 905
e 110 911
e 110 918
e 110 922
e 110 933
e 110 935
e 110 975
e 110 979
e 110 1000
e 111 251
e 111 262
e 111 280
e 111 286
e 111 289
e 111 303
e 111 306
e 111 347
e 111 349
e 111 364
e 111 366
e 111 372
e 111 390
e 111 396
e 111 399
e 111 405
e 111 406
e 111 453
e 111 457
e 111 461
e 111 469
e 111 471
e 111 473
e 111 478
e 111 487
e 111 491
e 111 497
e 111 502
e 111 508
e 111 510
e 111 525
e 111 526
e 111 534
e 111 544
e 111 545
e 111 553
e 111 561
e 111 588
e 111 593
e 111 598
e 111 602
e 111 606
e 111 623
e 111 624
e 111 635
e 111 642
e 111 650
e 111 676
e 111 683
e 111 694
e 111 733
e 111 761
e 111 762
e 111 764
e 111 765
e 111 782
e 111 803
e 111 827
e 111 838
e 111 849
e 111 854
e 111 855
e 111 862
e 111 873
e 111 878
e 111 888
e 111 889
e 111 903
e 111 910
e 111 918
e 111 936
e 111 951
e 111 956
e 111 982
e 111 986
e 112 253
e 112 265
e 112 274
e 112 281
e 112 290
e 112 302
e 112 343
e 112 345
e 112 351
e 112 356
e 112 359
e 112 381
e 112 389
e 112 404
e 112 407
e 112 417
e 112 430
e 112 484
e 112 516
e 112 529
e 112 538
e 112 542
e 112 582
e 112 593
e 112 608
e 112 612
e 112 614
e 112 621
e 112 624
e 112 635
e 112 639
e 112 660
e 112 664
e 112 672
e 112 677
e 112 714
e 112 724
e 112 758
e 112 764
e 112 777
e 112 796
e 112 797
e 112 802
e 112 806
e 112 822
e 112 830
e 112 839
e 112 851
e 112 859
e 112 862
e 112 863
e 112 874
e 112 881
e 112 887
e 112 891
e 112 898
e 112 900
e 112 915
e 112 918
e 112 939
e 112 945
e 112 953
e 112 959
e 112 981
e 112 982
e 113 261
e 113 273
e 113 291
e 113 297
e 113 310
e 113 331
e 113 352
e 113 362
e 113 377
e 113 385
e 113 391
e 113 397
e 113 402
e 113 411
e 113 412
e 113 421
e 113 435
e 113 444
e 113 448
e 113 484
e 113 503
e 113 537
e 113 538
e 113 546
e 113 550
e 113 553
e 113 554
e 113 579
e 113 599
e 113 619
e 113 630
e 113 638
e 113 655
e 113 672
e 113 707
e 113 710
e 113 714
e 113 761
e 113 787
e 113 829
e 113 830
e 113 832
e 113 837
e 113 854
e 113 856
e 113 858
e 113 859
e 113 863
e 113 866
e 113 867
e 113 878
e 113 911
e 113 934
e 113 939
e 113 941
e 113 945
e 113 953
e 113 976
e 113 984
e 113 994
e 113 1000
e 114 260
e 114 261
e 114 264
e 114 265
e 114 270
e 114 276
e 114 291
e 114 303
e 114 312
e 114 313
e 114 326
e 114 328
e 114 331
e 114 344
e 114 354
e 114 359
e 114 368
e 114 377
e 114 388
e 114 403
e 114 412
e 114 414
e 114 442
e 114 451
e 114 461
e 114 476
e 114 495
e 114 498
e 114 502
e 114 528
e 114 530
e 114 536
e 114 549
e 114 562
e 114 567
e 114 576
e 114 594
e 114 598
e 114 611
e 114 630
e 114 648
e 114 658
e 114 662
e 114 669
e 114 689
e 114 719
e 114 734
e 114 744
e 114 748
e 114 760
e 114 784
e 114 794
e 114 802
e 114 808
e 114 827
e 114 828
e 114 843
e 114 844
e 114 847
e 114 853
e 114 858
e 114 882
e 114 886
e 114 909
e 114 918
e 114 919
e 114 935
e 114 939
e 114 941
e 114 951
e 114 982
e 114 992
e 114 998
e 114 1000
e 115 254
e 115 264
e 115 270
e 115 271
e 115 283
e 115 286
e 115 298
e 115 302
e 115 306
e 115 314
e 115 317
e 115 336
e 115 343
e 115 344
e 115 402
e 115 409
e 115 423
e 115 433
e 115 434
e 115 453
e 115 463
e 115 465
e 115 466
e 115 484
e 115 496
e 115 507
e 115 528
e 115 541
e 115 543
e 115 550
e 115 573
e 115 595
e 115 613
e 115 623
e 115 625
e 115 634
e 115 641
e 115 647
e 115 672
e 115 673
e 115 705
e 115 709
e 115 711
e 115 714
e 115 729
e 115 736
e 115 738
e 115 740
e 115 773
e 115 781
e 115 786
e 115 803
e 115 806
e 115 811
e 115 813
e 115 822
e 115 824
e 115 825
e 115 827
e 115 828
e 115 838
e 115 850
e 115 859
e 115 873
e 115 900
e 115 903
e 115 909
e 115 917
e 115 924
e 115 935
e 115 939
e 115 960
e 115 967
e 115 976
e 115 978
e 115 980
e 115 984
e 115 988
e 115 992
e 115 995
e 115 997
e 116 252
e 116 257
e 116 265
e 116 286
e 116 295
e 116 298
e 116 305
e 116 310
e 116 321
e 116 329
e 116 344
e 116 346
e 116 350
e 116 362
e 116 374
e 116 383
e 116 384
e 116 406
e 116 410
e 116 426
e 116 444
e 116 452
e 116 456
e 116 463
e 116 479
e 116 483
e 116 497
e 116 512
e 116 513
e 116 558
e 116 562
e 116 567
e 116 577
e 116 591
e 116 627
e 116 639
e 116 652
e 116 664
e 116 681
e 116 695
e 116 699
e 116 708
e 116 723
e 116 734
e 116 735
e 116 742
e 116 764
e 116 777
e 116 781
e 116 783
e 116 787
e 116 796
e 116 815
e 116 820
e 116 822
e 116 825
e 116 840
e 116 850
e 116 881
e 116 886
e 116 889
e 116 891
e 116 924
e 116 929
e 116 930
e 116 931
e 116 936
e 116 966
e 116 967
e 116 971
e 116 987
e 116 988
e 116 989
e 116 994
e 117 255
e 117 257
e 117 261
e 117 266
e 117 267
e 117 269
e 117 284
e 117 301
e 117 303
e 117 311
e 117 342
e 117 348
e 117 359
e 117 361
e 117 368
e 117 376
e 117 377
e 117 383
e 117 384
e 117 401
e 117 409
e 117 418
e 117 421
e 117 423
e 117 426
e 117 434
e 117 441
e 117 462
e 117 463
e 117 479
e 117 481
e 117 483
e 117 496
e 117 503
e 117 505
e 117 511
e 117 522
e 117 525
e 117 530
e 117 539
e 117 541
e 117 549
e 117 552
e 117 555
e 117 562
e 117 565
e 117 570
e 117 575
e 117 608
e 117 640
e 117 644
e 117 654
e 117 664
e 117 666
e 117 669
e 117 676
e 117 679
e 117 682
e 117 698
e 117 699
e 117 702
e 117 735
e 117 753
e 117 756
e 117 758
e 117 773
e 117 778
e 117 779
e 117 782
e 117 802
e 117 811
e 117 837
e 117 845
e 117 854
e 117 858
e 117 863
e 117 866
e 117 867
e 117 869
e 117 873
e 117 891
e 117 898
e 117 922
e 117 923
e 117 928
e 117 929
e 117 935
e 117 951
e 117 953
e 117 954
e 117 989
e 118 257
e 118 261
e 118 263
e 118 276
e 118 278
e 118 321
e 118 339
e 118 364
e 118 366
e 118 408
e 118 418
e 118 425
e 118 438
e 118 440
e 118 447
e 118 448
e 118 461
e 118 469
e 118 480
e 118 488
e 118 509
e 118 533
e 118 545
e 118 550
e 118 569
e 118 571
e 118 578
e 118 584
e 118 589
e 118 593
e 118 601
e 118 619
e 118 636
e 118 640
e 118 675
e 118 700
e 118 705
e 118 709
e 118 713
e 118 718
e 118 730
e 118 739
e 118 765
e 118 767
e 118 770
e 118 792
e 118 812
e 118 833
e 118 836
e 118 840
e 118 850
e 118 874
e 118 885
e 118 908
e 118 909
e 118 910
e 118 916
e 118 938
e 118 939
e 118 944
e 118 961
e 118 977
e 118 990
e 119 251
e 119 252
e 119 259
e 119 260
e 119 266
e 119 269
e 119 277
e 119 280
e 119 281
e 119 287
e 119 313
e 119 314
e 119 319
e 119 322
e 119 339
e 119 347
e 119 384
e 119 388
e 119 403
e 119 412
e 119 426
e 119 432
e 119 439
e 119 501
e 119 504
e 119 525
e 119 532
e 119 541
e 119 550
e 119 551
e 119 555
e 119 556
e 119 558
e 119 574
e 119 582
e 119 585
e 119 603
e 119 609
e 119 648
e 119 661
e 119 665
e 119 702
e 119 703
e 119 724
e 119 728
e 119 734
e 119 748
e 119 762
e 119 771
e 119 784
e 119 785
e 119 787
e 119 808
e 119 811
e 119 821
e 119 822
e 119 834
e 119 855
e 119 860
e 119 863
e 119 866
e 119 881
e 119 904
e 119 910
e 119 914
e 119 916
e 119 937
e 119 947
e 119 954
e 119 955
e 119 969
e 119 986
e 120 251
e 120 265
e 120 287
e 120 322
e 120 323
e 120 352
e 120 361
e 120 366
e 120 373
e 120 401
e 120 424
e 120 428
e 120 435
e 120 444
e 120 449
e 120 452
e 120 486
e 120 502
e 120 504
e 120 514
e 120 545
e 120 563
e 120 600
e 120 604
e 120 606
e 120 607
e 120 616
e 120 635
e 120 639
e 120 643
e 120 644
e 120 652
e 120 662
e 120 665
e 120 675
e 120 678
e 120 682
e 120 702
e 120 713
e 120 733
e 120 743
e 120 748
e 120 757
e 120 758
e 120 764
e 120 774
e 120 777
e 120 784
e 120 788
e 120 817
e 120 821
e 120 860
e 120 864
e 120 871
e 120 872
e 120 874
e 120 885
e 120 902
e 120 916
e 120 927
e 120 936
e 120 947
e 120 948
e 120 963
e 120 977
e 120 983
e 120 993
e 121 251
e 121 254
e 121 256
e 121 268
e 121 272
e 121 273
e 121 277
e 121 298
e 121 301
e 121 309
e 121 312
e 121 319
e 121 321
e 121 324
e 121 339
e 121 351
e 121 362
e 121 376
e 121 378
e 121 397
e 121 408
e 121 433
e 121 453
e 121 460
e 121 465
e 121 473
e 121 475
e 121 483
e 121 493
e 121 495
e 121 515
e 121 522
e 121 531
e 121 539
e 121 544
e 121 555
e 121 558
e 121 567
e 121 577
e 121 579
e 121 582
e 121 584
e 121 585
e 121 590
e 121 601
e 121 605
e 121 614
e 121 621
e 121 622
e 121 629
e 121 632
e 121 653
e 121 655
e 121 669
e 121 677
e 121 702
e 121 716
e 121 721
e 121 728
e 121 739
e 121 740
e 121 759
e 121 792
e 121 804
e 121 816
e 121 822
e 121 826
e 121 837
e 121 843
e 121 846
e 121 847
e 121 866
e 121 872
e 121 874
e 121 876
e 121 880
e 121 884
e 121 890
e 121 900
e 121 901
e 121 905
e 121 924
e 121 938
e 121 941
e 121 942
e 121 958
e 121 965
e 121 976
e 121 977
e 122 269
e 122 295
e 122 302
e 122 306
e 122 315
e 122 323
e 122 326
e 122 331
e 122 354
e 122 355
e 122 358
e 122 366
e 122 383
e 122 392
e 122 407
e 122 429
e 122 448
e 122 460
e 122 462
e 122 477
e 122 489
e 122 496
e 122 513
e 122 561
e 122 565
e 122 606
e 122 614
e 122 622
e 122 630
e 122 639
e 122 642
e 122 644
e 122 647
e 122 655
e 122 659
e 122 675
e 122 684
e 122 686
e 122 709
e 122 715
e 122 731
e 122 735
e 122 739
e 122 746
e 122 756
e 122 759
e 122 768
e 122 791
e 122 813
e 122 827
e 122 832
e 122 843
e 122 852
e 122 856
e 122 866
e 122 877
e 122 878
e 122 879
e 122 908
e 122 915
e 122 925
e 122 930
e 122 934
e 122 953
e 122 965
e 122 986
e 122 990
e 123 264
e 123 280
e 123 296
e 123 307
e 123 317
e 123 326
e 123 327
e 123 334
e 123 336
e 123 343
e 123 357
e 123 359
e 123 376
e 123 402
e 123 431
e 123 444
e 123 447
e 123 467
e 123 479
e 123 502
e 123 530
e 123 537
e 123 544
e 123 550
e 123 585
e 123 586
e 123 598
e 123 607
e 123 619
e 123 627
e 123 648
e 123 653
e 123 661
e 123 676
e 123 695
e 123 702
e 123 704
e 123 707
e 123 710
e 123 712
e 123 715
e 123 721
e 123 724
e 123 727
e 123 732
e 123 737
e 123 748
e 123 752
e 123 761
e 123 791
e 123 815
e 123 824
e 123 886
e 123 889
e 123 895
e 123 898
e 123 899
e 123 900
e 123 915
e 123 921
e 123 927
e 123 950
e 123 962
e 123 974
e 123 987
e 123 988
e 123 989
e 124 280
e 124 293
e 124 297
e 124 324
e 124 328
e 124 338
e 124 340
e 124 346
e 124 366
e 124 368
e 124 386
e 124 387
e 124 400
e 124 401
e 124 439
e 124 452
e 124 465
e 124 466
e 124 514
e 124 519
e 124 526
e 124 529
e 124 533
e 124 534
e 124 535
e 124 594
e 124 596
e 124 605
e 124 632
e 124 635
e 124 647
e 124 654
e 124 660
e 124 681
e 124 690
e 124 712
e 124 714
e 124 722
e 124 753
e 124 755
e 124 781
e 124 796
e 124 804
e 124 809
e 124 817
e 124 823
e 124 829
e 124 830
e 124 846
e 124 850
e 124 852
e 124 855
e 124 865
e 124 870
e 124 873
e 124 879
e 124 880
e 124 893
e 124 918
e 124 937
e 124 947
e 124 954
e 124 967
e 124 968
e 124 972
e 124 987
e 124 988
e 124 989
e 124 994
e 124 995
e 124 998
e 125 253
e 125 264
e 125 269
e 125 306
e 125 314
e 125 322
e 125 323
e 125 350
e 125 352
e 125 367
e 125 372
e 125 401
e 125 402
e 125 408
e 125 423
e 125 424
e 125 428
e 125 449
e 125 461
e 125 464
e 125 472
e 125 512
e 125 544
e 125 546
e 125 547
e 125 558
e 125 562
e 125 566
e 125 583
e 125 592
e 125 597
e 125 598
e 125 610
e 125 616
e 125 618
e 125 627
e 125 640
e 125 655
e 125 656
e 125 659
e 125 671
e 125 674
e 125 677
e 125 684
e 125 691
e 125 698
e 125 699
e 125 736
e 125 751
e 125 762
e 125 763
e 125 771
e 125 778
e 125 791
e 125 805
e 125 833
e 125 850
e 125 873
e 125 886
e 125 893
e 125 894
e 125 899
e 125 903
e 125 919
e 125 927
e 125 931
e 125 946
e 125 954
e 125 966
e 125 967
e 125 974
e 125 978
e 125 992
e 126 265
e 126 274
e 126 275
e 126 289
e 126 297
e 126 308
e 126 316
e 126 327
e 126 330
e 126 332
e 126 350
e 126 352
e 126 356
e 126 367
e 126 370
e 126 371
e 126 373
e 126 386
e 126 392
e 126 407
e 126 413
e 126 429
e 126 441
e 126 457
e 126 461
e 126 462
e 126 466
e 126 482
e 126 493
e 126 494
e 126 500
e 126 510
e 126 517
e 126 518
e 126 521
e 126 528
e 126 554
e 126 580
e 126 629
e 126 645
e 126 647
e 126 674
e 126 681
e 126 688
e 126 691
e 126 696
e 126 705
e 126 718
e 126 719
e 126 734
e 126 739
e 126 765
e 126 777
e 126 786
e 126 790
e 126 819
e 126 824
e 126 830
e 126 834
e 126 838
e 126 847
e 126 859
e 126 866
e 126 885
e 126 911
e 126 923
e 126 935
e 126 959
e 126 962
e 126 988
e 126 990
e 126 993
e 127 253
e 127 258
e 127 269
e 127 273
e 127 274
e 127 297
e 127 314
e 127 316
e 127 327
e 127 335
e 127 340
e 127 348
e 127 374
e 127 388
e 127 390
e 127 422
e 127 429
e 127 446
e 127 456
e 127 462
e 127 469
e 127 477
e 127 491
e 127 498
e 127 506
e 127 565
e 127 572
e 127 586
e 127 612
e 127 616
e 127 621
e 127 639
e 127 654
e 127 700
e 127 727
e 127 730
e 127 737
e 127 745
e 127 766
e 127 771
e 127 774
e 127 776
e 127 804
e 127 820
e 127 841
e 127 852
e 127 867
e 127 868
e 127 879
e 127 886
e 127 887
e 127 890
e 127 892
e 127 899
e 127 903
e 127 912
e 127 916
e 127 919
e 127 922
e 127 951
e 127 965
e 127 980
e 127 991
e 127 993
e 127 998
e 128 254
e 128 259
e 128 270
e 128 276
e 128 277
e 128 295
e 128 297
e 128 334
e 128 338
e 128 347
e 128 362
e 128 381
e 128 386
e 128 408
e 128 422
e 128 433
e 128 434
e 128 435
e 128 437
e 128 475
e 128 499
e 128 508
e 128 548
e 128 551
e 128 563
e 128 623
e 128 633
e 128 639
e 128 641
e 128 653
e 128 669
e 128 684
e 128 685
e 128 696
e 128 697
e 128 710
e 128 723
e 128 729
e 128 746
e 128 747
e 128 772
e 128 795
e 128 804
e 128 807
e 128 820
e 128 831
e 128 844
e 128 845
e 128 848
e 128 855
e 128 856
e 128 866
e 128 874
e 128 877
e 128 886
e 128 890
e 128 903
e 128 911
e 128 915
e 128 918
e 128 923
e 128 928
e 128 938
e 128 949
e 128 958
e 128 971
e 128 978
e 128 982
e 129 261
e 129 270
e 129 275
e 129 277
e 129 288
e 129 303
e 129 329
e 129 343
e 129 344
e 129 387
e 129 404
e 129 435
e 129 455
e 129 464
e 129 465
e 129 490
e 129 498
e 129 506
e 129 513
e 129 521
e 129 524
e 129 525
e 129 539
e 129 546
e 129 549
e 129 556
e 129 567
e 129 575
e 129 584
e 129 587
e 129 592
e 129 611
e 129 614
e 129 625
e 129 628
e 129 675
e 129 685
e 129 691
e 129 701
e 129 740
e 129 753
e 129 775
e 129 793
e 129 798
e 129 809
e 129 818
e 129 843
e 129 860
e 129 866
e 129 872
e 129 876
e 129 908
e 129 930
e 129 935
e 129 936
e 129 939
e 129 947
e 129 959
e 129 962
e 129 983
e 129 993
e 129 1000
e 130 253
e 130 254
e 130 260
e 130 262
e 130 269
e 130 278
e 130 291
e 130 298
e 130 302
e 130 309
e 130 316
e 130 348
e 130 355
e 130 371
e 130 384
e 130 386
e 130 391
e 130 414
e 130 415
e 130 422
e 130 429
e 130 436
e 130 445
e 130 447
e 130 457
e 130 463
e 130 478
e 130 491
e 130 534
e 130 540
e 130 541
e 130 559
e 130 564
e 130 568
e 130 574
e 130 575
e 130 579
e 130 612
e 130 619
e 130 623
e 130 637
e 130 640
e 130 645
e 130 648
e 130 653
e 130 654
e 130 662
e 130 676
e 130 684
e 130 706
e 130 707
e 130 731
e 130 735
e 130 738
e 130 739
e 130 745
e 130 749
e 130 770
e 130 795
e 130 800
e 130 815
e 130 822
e 130 823
e 130 827
e 130 831
e 130 836
e 130 841
e 130 857
e 130 882
e 130 884
e 130 892
e 130 908
e 130 917
e 130 939
e 130 940
e 130 945
e 130 962
e 130 966
e 130 974
e 130 984
e 130 997
e 131 266
e 131 267
e 131 268
e 131 282
e 131 308
e 131 314
e 131 318
e 131 326
e 131 340
e 131 357
e 131 368
e 131 381
e 131 391
e 131 399
e 131 416
e 131 426
e 131 437
e 131 447
e 131 454
e 131 456
e 131 460
e 131 477
e 131 481
e 131 484
e 131 498
e 131 500
e 131 501
e 131 510
e 131 527
e 131 528
e 131 531
e 131 540
e 131 544
e 131 554
e 131 568
e 131 610
e 131 652
e 131 693
e 131 722
e 131 732
e 131 733
e 131 734
e 131 743
e 131 753
e 131 756
e 131 763
e 131 765
e 131 788
e 131 791
e 131 797
e 131 798
e 131 836
e 131 840
e 131 849
e 131 863
e 131 865
e 131 871
e 131 889
e 131 896
e 131 901
e 131 904
e 131 916
e 131 918
e 131 935
e 131 952
e 131 956
e 131 959
e 131 963
e 131 964
e 131 969
e 131 992
e 132 264
e 132 267
e 132 270
e 132 282
e 132 284
e 132 286
e 132 290
e 132 301
e 132 306
e 132 331
e 132 334
e 132 349
e 132 351
e 132 359
e 132 363
e 132 378
e 132 393
e 132 400
e 132 415
e 132 418
e 132 421
e 132 431
e 132 437
e 132 453
e 132 469
e 132 484
e 132 491
e 132 492
e 132 500
e 132 520
e 132 528
e 132 534
e 132 541
e 132 545
e 132 560
e 132 564
e 132 570
e 132 576
e 132 609
e 132 613
e 132 617
e 132 625
e 132 629
e 132 640
e 132 654
e 132 661
e 132 680
e 132 700
e 132 718
e 132 721
e 132 722
e 132 744
e 132 749
e 132 751
e 132 773
e 132 780
e 132 789
e 132 793
e 132 794
e 132 796
e 132 817
e 132 822
e 132 823
e 132 824
e 132 844
e 132 859
e 132 862
e 132 883
e 132 894
e 132 895
e 132 906
e 132 907
e 132 908
e 132 931
e 132 939
e 132 946
e 132 955
e 132 956
e 132 967
e 132 998
e 133 263
e 133 277
e 133 298
e 133 299
e 133 305
e 133 323
e 133 328
e 133 338
e 133 343
e 133 345
e 133 356
e 133 380
e 133 417
e 133 425
e 133 451
e 133 456
e 133 459
e 133 461
e 133 464
e 133 465
e 133 466
e 133 472
e 133 489
e 133 490
e 133 491
e 133 507
e 133 511
e 133 512
e 133 520
e 133 531
e 133 548
e 133 558
e 133 569
e 133 573
e 133 590
e 133 605
e 133 618
e 133 619
e 133 624
e 133 646
e 133 652
e 133 660
e 133 678
e 133 694
e 133 707
e 133 709
e 133 714
e 133 733
e 133 761
e 133 767
e 133 779
e 133 782
e 133 793
e 133 819
e 133 828
e 133 848
e 133 850
e 133 857
e 133 858
e 133 862
e 133 863
e 133 876
e 133 885
e 133 903
e 133 909
e 133 915
e 133 922
e 133 926
e 133 928
e 133 936
e 133 942
e 133 950
e 133 993
e 134 271
e 134 276
e 134 293
e 134 326
e 134 353
e 134 357
e 134 370
e 134 372
e 134 374
e 134 378
e 134 396
e 134 418
e 134 433
e 134 437
e 134 441
e 134 448
e 134 465
e 134 467
e 134 490
e 134 497
e 134 504
e 134 507
e 134 523
e 134 526
e 134 543
e 134 559
e 134 580
e 134 604
e 134 614
e 134 631
e 134 649
e 134 652
e 134 654
e 134 656
e 134 666
e 134 667
e 134 680
e 134 682
e 134 699
e 134 709
e 134 718
e 134 745
e 134 750
e 134 778
e 134 795
e 134 801
e 134 809
e 134 836
e 134 867
e 134 893
e 134 895
e 134 898
e 134 902
e 134 906
e 134 911
e 134 914
e 134 916
e 134 940
e 134 943
e 134 946
e 134 953
e 134 957
e 134 964
e 134 971
e 134 976
e 134 987
e 134 992
e 134 995
e 135 251
e 135 255
e 135 261
e 135 268
e 135 275
e 135 278
e 135 288
e 135 293
e 135 320
e 135 339
e 135 367
e 135 368
e 135 375
e 135 403
e 135 405
e 135 407
e 135 408
e 135 410
e 135 438
e 135 439
e 135 445
e 135 463
e 135 467
e 135 470
e 135 484
e 135 499
e 135 502
e 135 511
e 135 538
e 135 540
e 135 542
e 135 547
e 135 582
e 135 607
e 135 628
e 135 638
e 135 643
e 135 644
e 135 658
e 135 664
e 135 681
e 135 711
e 135 731
e 135 735
e 135 737
e 135 758
e 135 759
e 135 764
e 135 769
e 135 780
e 135 784
e 135 797
e 135 801
e 135 804
e 135 811
e 135 814
e 135 817
e 135 823
e 135 830
e 135 831
e 135 842
e 135 865
e 135 871
e 135 899
e 135 932
e 135 942
e 135 968
e 135 995
e 136 269
e 136 276
e 136 306
e 136 316
e 136 353
e 136 357
e 136 361
e 136 363
e 136 375
e 136 379
e 136 381
e 136 395
e 136 409
e 136 411
e 136 418
e 136 419
e 136 425
e 136 427
e 136 428
e 136 431
e 136 433
e 136 444
e 136 466
e 136 472
e 136 476
e 136 481
e 136 483
e 136 491
e 136 510
e 136 523
e 136 530
e 136 537
e 136 540
e 136 551
e 136 555
e 136 561
e 136 567
e 136 577
e 136 601
e 136 605
e 136 611
e 136 638
e 136 640
e 136 647
e 136 665
e 136 689
e 136 707
e 136 722
e 136 733
e 136 745
e 136 751
e 136 762
e 136 763
e 136 770
e 136 775
e 136 787
e 136 794
e 136 796
e 136 810
e 136 830
e 136 834
e 136 837
e 136 843
e 136 900
e 136 911
e 136 915
e 136 942
e 136 947
e 136 948
e 136 957
e 136 959
e 136 980
e 136 989
e 136 996
e 137 251
e 137 252
e 137 272
e 137 275
e 137 276
e 137 280
e 137 282
e 137 299
e 137 311
e 137 313
e 137 315
e 137 317
e 137 335
e 137 338
e 137 352
e 137 355
e 137 359
e 137 363
e 137 365
e 137 370
e 137 371
e 137 374
e 137 377
e 137 395
e 137 406
e 137 430
e 137 434
e 137 435
e 137 441
e 137 459
e 137 484
e 137 497
e 137 500
e 137 527
e 137 537
e 137 545
e 137 555
e 137 575
e 137 599
e 137 615
e 137 620
e 137 629
e 137 633
e 137 652
e 137 672
e 137 698
e 137 701
e 137 702
e 137 703
e 137 715
e 137 717
e 137 733
e 137 737
e 137 741
e 137 748
e 137 761
e 137 770
e 137 778
e 137 779
e 137 780
e 137 789
e 137 799
e 137 803
e 137 824
e 137 832
e 137 839
e 137 896
e 137 902
e 137 911
e 137 927
e 137 933
e 137 940
e 137 943
e 137 962
e 137 965
e 138 272
e 138 279
e 138 291
e 138 340
e 138 344
e 138 347
e 138 352
e 138 382
e 138 383
e 138 390
e 138 391
e 138 407
e 138 413
e 138 420
e 138 431
e 138 434
e 138 460
e 138 464
e 138 465
e 138 492
e 138 507
e 138 511
e 138 515
e 138 531
e 138 537
e 138 539
e 138 544
e 138 569
e 138 574
e 138 585
e 138 594
e 138 607
e 138 608
e 138 612
e 138 613
e 138 619
e 138 623
e 138 659
e 138 688
e 138 705
e 138 718
e 138 731
e 138 763
e 138 770
e 138 778
e 138 783
e 138 785
e 138 797
e 138 806
e 138 808
e 138 815
e 138 826
e 138 834
e 138 845
e 138 847
e 138 855
e 138 883
e 138 896
e 138 926
e 138 953
e 138 979
e 138 983
e 138 995
e 138 999
e 139 251
e 139 255
e 139 259
e 139 289
e 139 292
e 139 302
e 139 305
e 139 307
e 139 312
e 139 314
e 139 318
e 139 328
e 139 329
e 139 333
e 139 340
e 139 374
e 139 375
e 139 391
e 139 396
e 139 401
e 139 416
e 139 419
e 139 430
e 139 434
e 139 435
e 139 458
e 139 475
e 139 484
e 139 539
e 139 543
e 139 552
e 139 563
e 139 565
e 139 574
e 139 592
e 139 610
e 139 625
e 139 630
e 139 635
e 139 642
e 139 647
e 139 664
e 139 667
e 139 668
e 139 685
e 139 695
e 139 712
e 139 720
e 139 733
e 139 748
e 139 752
e 139 761
e 139 774
e 139 775
e 139 791
e 139 810
e 139 811
e 139 816
e 139 839
e 139 840
e 139 842
e 139 843
e 139 844
e 139 861
e 139 867
e 139 878
e 139 892
e 139 902
e 139 904
e 139 914
e 139 943
e 139 970
e 139 986
e 139 989
e 139 993
e 139 995
e 139 998
e 140 251
e 140 267
e 140 294
e 140 307
e 140 308
e 140 309
e 140 317
e 140 323
e 140 337
e 140 341
e 140 345
e 140 346
e 140 359
e 140 370
e 140 381
e 140 406
e 140 415
e 140 436
e 140 443
e 140 452
e 140 455
e 140 476
e 140 481
e 140 501
e 140 505
e 140 510
e 140 511
e 140 515
e 140 516
e 140 520
e 140 522
e 140 525
e 140 526
e 140 530
e 140 537
e 140 546
e 140 555
e 140 557
e 140 600
e 140 611
e 140 641
e 140 646
e 140 669
e 140 673
e 140 675
e 140 686
e 140 688
e 140 694
e 140 702
e 140 705
e 140 715
e 140 729
e 140 763
e 140 784
e 140 801
e 140 808
e 140 811
e 140 864
e 140 898
e 140 900
e 140 917
e 140 927
e 140 930
e 140 963
e 140 970
e 140 977
e 140 984
e 140 993
e 141 257
e 141 264
e 141 265
e 141 267
e 141 315
e 141 342
e 141 355
e 141 365
e 141 391
e 141 404
e 141 405
e 141 419
e 141 438
e 141 450
e 141 458
e 141 459
e 141 462
e 141 477
e 141 486
e 141 489
e 141 490
e 141 493
e 141 520
e 141 527
e 141 553
e 141 569
e 141 571
e 141 588
e 141 589
e 141 594
e 141 601
e 141 616
e 141 617
e 141 618
e 141 622
e 141 628
e 141 633
e 141 634
e 141 636
e 141 664
e 141 675
e 141 677
e 141 682
e 141 685
e 141 692
e 141 710
e 141 730
e 141 741
e 141 745
e 141 783
e 141 797
e 141 800
e 141 808
e 141 810
e 141 829
e 141 857
e 141 860
e 141 869
e 141 892
e 141 899
e 141 907
e 141 928
e 141 939
e 141 953
e 141 959
e 141 960
e 141 966
e 141 978
e 141 983
e 141 985
e 141 992
e 142 258
e 142 262
e 142 268
e 142 274
e 142 296
e 142 333
e 142 352
e 142 358
e 142 394
e 142 398
e 142 402
e 142 408
e 142 419
e 142 425
e 142 429
e 142 431
e 142 445
e 142 447
e 142 457
e 142 464
e 142 471
e 142 477
e 142 480
e 142 484
e 142 487
e 142 490
e 142 506
e 142 519
e 142 527
e 142 532
e 142 534
e 142 539
e 142 552
e 142 569
e 142 578
e 142 599
e 142 641
e 142 642
e 142 649
e 142 656
e 142 669
e 142 686
e 142 697
e 142 699
e 142 730
e 142 751
e 142 753
e 142 776
e 142 777
e 142 784
e 142 804
e 142 809
e 142 810
e 142 836
e 142 850
e 142 854
e 142 856
e 142 857
e 142 869
e 142 893
e 142 894
e 142 899
e 142 926
e 142 946
e 142 950
e 142 953
e 142 959
e 142 961
e 142 973
e 142 975
e 142 983
e 142 998
e 143 258
e 143 263
e 143 267
e 143 268
e 143 279
e 143 292
e 143 293
e 143 297
e 143 322
e 143 330
e 143 357
e 143 361
e 143 368
e 143 371
e 143 372
e 143 388
e 143 389
e 143 393
e 143 394
e 143 415
e 143 420
e 143 452
e 143 467
e 143 470
e 143 477
e 143 489
e 143 490
e 143 499
e 143 505
e 143 514
e 143 526
e 143 543
e 143 545
e 143 549
e 143 555
e 143 557
e 143 558
e 143 560
e 143 571
e 143 574
e 143 577
e 143 582
e 143 655
e 143 673
e 143 687
e 143 699
e 143 700
e 143 701
e 143 711
e 143 713
e 143 720
e 143 721
e 143 730
e 143 736
e 143 765
e 143 772
e 143 781
e 143 784
e 143 785
e 143 802
e 143 805
e 143 812
e 143 821
e 143 868
e 143 872
e 143 879
e 143 909
e 143 915
e 143 924
e 143 936
e 143 942
e 143 954
e 143 955
e 143 993
e 144 255
e 144 266
e 144 273
e 144 279
e 144 284
e 144 289
e 144 308
e 144 310
e 144 313
e 144 350
e 144 351
e 144 353
e 144 362
e 144 376
e 144 385
e 144 387
e 144 399
e 144 407
e 144 415
e 144 426
e 144 428
e 144 458
e 144 463
e 144 476
e 144 479
e 144 483
e 144 497
e 144 528
e 144 549
e 144 550
e 144 552
e 144 556
e 144 574
e 144 577
e 144 589
e 144 592
e 144 597
e 144 624
e 144 639
e 144 659
e 144 662
e 144 668
e 144 675
e 144 691
e 144 704
e 144 723
e 144 730
e 144 747
e 144 754
e 144 768
e 144 778
e 144 783
e 144 797
e 144 803
e 144 809
e 144 865
e 144 883
e 144 902
e 144 908
e 144 923
e 144 926
e 144 939
e 144 942
e 144 959
e 144 961
e 144 973
e 144 1000
e 145 256
e 145 261
e 145 277
e 145 278
e 145 287
e 145 308
e 145 331
e 145 335
e 145 347
e 145 352
e 145 359
e 145 385
e 145 390
e 145 404
e 145 415
e 145 425
e 145 433
e 145 435
e 145 452
e 145 453
e 145 456
e 145 458
e 145 472
e 145 503
e 145 507
e 145 516
e 145 521
e 145 525
e 145 578
e 145 590
e 145 607
e 145 619
e 145 628
e 145 653
e 145 661
e 145 678
e 145 683
e 145 692
e 145 695
e 145 699
e 145 708
e 145 710
e 145 722
e 145 725
e 145 728
e 145 733
e 145 738
e 145 742
e 145 758
e 145 760
e 145 778
e 145 782
e 145 783
e 145 791
e 145 805
e 145 814
e 145 829
e 145 835
e 145 838
e 145 848
e 145 849
e 145 891
e 145 893
e 145 894
e 145 902
e 145 911
e 145 917
e 145 921
e 145 923
e 145 924
e 145 937
e 145 941
e 145 957
e 145 960
e 145 970
e 145 977
e 145 986
e 145 989
e 145 993
e 146 269
e 146 276
e 146 291
e 146 293
e 146 298
e 146 312
e 146 345
e 146 352
e 146 353
e 146 355
e 146 374
e 146 375
e 146 376
e 146 386
e 146 400
e 146 404
e 146 406
e 146 426
e 146 433
e 146 443
e 146 452
e 146 462
e 146 472
e 146 473
e 146 493
e 146 500
e 146 518
e 146 525
e 146 529
e 146 530
e 146 533
e 146 569
e 146 570
e 146 573
e 146 595
e 146 601
e 146 606
e 146 611
e 146 620
e 146 628
e 146 631
e 146 632
e 146 679
e 146 686
e 146 699
e 146 716
e 146 721
e 146 723
e 146 734
e 146 752
e 146 758
e 146 783
e 146 797
e 146 813
e 146 815
e 146 816
e 146 822
e 146 824
e 146 826
e 146 830
e 146 841
e 146 857
e 146 859
e 146 870
e 146 887
e 146 899
e 146 904
e 146 911
e 146 926
e 146 935
e 146 950
e 146 952
e 146 964
e 146 979
e 146 981
e 147 254
e 147 258
e 147 264
e 147 283
e 147 284
e 147 290
e 147 307
e 147 325
e 147 329
e 147 337
e 147 355
e 147 363
e 147 364
e 147 371
e 147 406
e 147 407
e 147 411
e 147 430
e 147 431
e 147 432
e 147 445
e 147 446
e 147 448
e 147 451
e 147 458
e 147 463
e 147 484
e 147 496
e 147 501
e 147 508
e 147 511
e 147 520
e 147 524
e 147 536
e 147 543
e 147 546
e 147 547
e 147 551
e 147 554
e 147 568
e 147 582
e 147 591
e 147 596
e 147 598
e 147 599
e 147 605
e 147 613
e 147 623
e 147 633
e 147 639
e 147 648
e 147 651
e 147 654
e 147 661
e 147 688
e 147 693
e 147 699
e 147 717
e 147 718
e 147 726
e 147 735
e 147 736
e 147 742
e 147 745
e 147 750
e 147 759
e 147 790
e 147 792
e 147 806
e 147 813
e 147 819
e 147 825
e 147 830
e 147 837
e 147 839
e 147 842
e 147 845
e 147 848
e 147 851
e 147 863
e 147 864
e 147 870
e 147 873
e 147 884
e 147 894
e 147 896
e 147 899
e 147 904
e 147 919
e 147 924
e 147 945
e 147 958
e 147 971
e 147 989
e 148 259
e 148 267
e 148 278
e 148 282
e 148 290
e 148 299
e 148 302
e 148 320
e 148 330
e 148 332
e 148 335
e 148 341
e 148 358
e 148 363
e 148 365
e 148 387
e 148 395
e 148 412
e 148 422
e 148 452
e 148 461
e 148 483
e 148 488
e 148 498
e 148 500
e 148 503
e 148 506
e 148 543
e 148 557
e 148 564
e 148 566
e 148 568
e 148 579
e 148 580
e 148 581
e 148 601
e 148 603
e 148 606
e 148 615
e 148 617
e 148 626
e 148 636
e 148 645
e 148 659
e 148 670
e 148 679
e 148 685
e 148 691
e 148 692
e 148 696
e 148 725
e 148 731
e 148 740
e 148 744
e 148 747
e 148 752
e 148 768
e 148 779
e 148 785
e 148 788
e 148 796
e 148 799
e 148 805
e 148 831
e 148 885
e 148 906
e 148 914
e 148 915
e 148 919
e 148 929
e 148 947
e 148 948
e 148 957
e 148 969
e 148 973
e 148 975
e 148 994
e 149 269
e 149 279
e 149 300
e 149 304
e 149 307
e 149 309
e 149 348
e 149 351
e 149 356
e 149 358
e 149 360
e 149 373
e 149 374
e 149 384
e 149 420
e 149 427
e 149 441
e 149 442
e 149 454
e 149 457
e 149 476
e 149 520
e 149 531
e 149 538
e 149 548
e 149 560
e 149 566
e 149 568
e 149 570
e 149 593
e 149 594
e 149 610
e 149 637
e 149 650
e 149 665
e 149 670
e 149 684
e 149 693
e 149 715
e 149 718
e 149 720
e 149 727
e 149 735
e 149 740
e 149 743
e 149 748
e 149 750
e 149 755
e 149 779
e 149 785
e 149 789
e 149 794
e 149 807
e 149 809
e 149 816
e 149 826
e 149 873
e 149 880
e 149 884
e 149 886
e 149 894
e 149 895
e 149 901
e 149 908
e 149 909
e 149 918
e 149 926
e 149 934
e 149 935
e 149 966
e 149 971
e 149 985
e 149 989
e 149 990
e 149 992
e 149 1000
e 150 251
e 150 274
e 150 281
e 150 284
e 150 303
e 150 304
e 150 307
e 150 313
e 150 325
e 150 327
e 150 331
e 150 335
e 150 336
e 150 347
e 150 354
e 150 373
e 150 376
e 150 378
e 150 396
e 150 404
e 150 405
e 150 421
e 150 425
e 150 431
e 150 434
e 150 445
e 150 461
e 150 480
e 150 497
e 150 513
e 150 535
e 150 536
e 150 538
e 150 540
e 150 544
e 150 564
e 150 565
e 150 595
e 150 604
e 150 605
e 150 607
e 150 619
e 150 640
e 150 649
e 150 669
e 150 673
e 150 677
e 150 690
e 150 699
e 150 702
e 150 704
e 150 711
e 150 748
e 150 756
e 150 758
e 150 789
e 150 793
e 150 794
e 150 814
e 150 815
e 150 817
e 150 853
e 150 864
e 150 875
e 150 894
e 150 895
e 150 898
e 150 916
e 150 923
e 150 932
e 150 942
e 150 945
e 150 952
e 150 954
e 150 955
e 150 957
e 150 979
e 150 983
e 150 989
e 150 993
e 150 999
e 151 263
e 151 288
e 151 306
e 151 324
e 151 338
e 151 340
e 151 350
e 151 356
e 151 363
e 151 383
e 151 384
e 151 391
e 151 413
e 151 425
e 151 444
e 151 451
e 151 456
e 151 458
e 151 474
e 151 478
e 151 482
e 151 484
e 151 485
e 151 492
e 151 495
e 151 502
e 151 508
e 151 511
e 151 513
e 151 516
e 151 533
e 151 537
e 151 541
e 151 547
e 151 548
e 151 549
e 151 571
e 151 582
e 151 584
e 151 619
e 151 626
e 151 630
e 151 632
e 151 633
e 151 637
e 151 661
e 151 668
e 151 689
e 151 701
e 151 708
e 151 713
e 151 725
e 151 729
e 151 745
e 151 747
e 151 749
e 151 769
e 151 771
e 151 774
e 151 781
e 151 784
e 151 793
e 151 800
e 151 809
e 151 815
e 151 817
e 151 822
e 151 825
e 151 841
e 151 843
e 151 855
e 151 865
e 151 876
e 151 878
e 151 880
e 151 883
e 151 908
e 151 914
e 151 915
e 151 924
e 151 933
e 151 970
e 151 975
e 152 268
e 152 270
e 152 273
e 152 280
e 152 281
e 152 292
e 152 296
e 152 302
e 152 308
e 152 309
e 152 326
e 152 342
e 152 350
e 152 351
e 152 362
e 152 363
e 152 375
e 152 384
e 152 385
e 152 390
e 152 391
e 152 392
e 152 395
e 152 427
e 152 428
e 152 430
e 152 436
e 152 446
e 152 463
e 152 477
e 152 478
e 152 495
e 152 503
e 152 521
e 152 524
e 152 542
e 152 544
e 152 553
e 152 558
e 152 571
e 152 598
e 152 605
e 152 615
e 152 620
e 152 632
e 152 633
e 152 648
e 152 652
e 152 657
e 152 665
e 152 666
e 152 682
e 152 691
e 152 702
e 152 717
e 152 772
e 152 785
e 152 796
e 152 803
e 152 809
e 152 810
e 152 822
e 152 828
e 152 851
e 152 852
e 152 854
e 152 859
e 152 861
e 152 865
e 152 868
e 152 894
e 152 922
e 152 941
e 152 946
e 152 989
e 153 252
e 153 253
e 153 262
e 153 286
e 153 302
e 153 310
e 153 314
e 153 326
e 153 327
e 153 348
e 153 350
e 153 357
e 153 363
e 153 373
e 153 383
e 153 409
e 153 411
e 153 423
e 153 434
e 153 445
e 153 460
e 153 470
e 153 473
e 153 480
e 153 498
e 153 507
e 153 512
e 153 517
e 153 519
e 153 542
e 153 552
e 153 559
e 153 560
e 153 570
e 153 575
e 153 586
e 153 588
e 153 591
e 153 600
e 153 603
e 153 617
e 153 622
e 153 644
e 153 657
e 153 660
e 153 683
e 153 699
e 153 713
e 153 723
e 153 725
e 153 737
e 153 749
e 153 773
e 153 806
e 153 837
e 153 839
e 153 853
e 153 873
e 153 878
e 153 882
e 153 885
e 153 886
e 153 910
e 153 913
e 153 941
e 153 957
e 153 959
e 153 969
e 153 984
e 153 985
e 153 994
e 154 251
e 154 259
e 154 262
e 154 272
e 154 274
e 154 277
e 154 299
e 154 310
e 154 336
e 154 340
e 154 349
e 154 352
e 154 359
e 154 373
e 154 390
e 154 414
e 154 416
e 154 419
e 154 425
e 154 430
e 154 437
e 154 447
e 154 456
e 154 459
e 154 460
e 154 480
e 154 483
e 154 484
e 154 490
e 154 508
e 154 520
e 154 522
e 154 530
e 154 535
e 154 542
e 154 551
e 154 561
e 154 564
e 154 576
e 154 579
e 154 607
e 154 614
e 154 616
e 154 623
e 154 650
e 154 656
e 154 660
e 154 672
e 154 684
e 154 705
e 154 709
e 154 710
e 154 713
e 154 714
e 154 716
e 154 722
e 154 727
e 154 759
e 154 772
e 154 790
e 154 797
e 154 798
e 154 824
e 154 829
e 154 843
e 154 853
e 154 859
e 154 905
e 154 916
e 154 917
e 154 920
e 154 937
e 154 963
e 154 964
e 154 974
e 154 975
e 154 979
e 154 987
e 154 993
e 155 252
e 155 260
e 155 271
e 155 278
e 155 282
e 155 289
e 155 290
e 155 304
e 155 321
e 155 331
e 155 344
e 155 348
e 155 353
e 155 362
e 155 375
e 155 379
e 155 394
e 155 404
e 155 414
e 155 422
e 155 425
e 155 431
e 155 434
e 155 435
e 155 453
e 155 454
e 155 478
e 155 479
e 155 484
e 155 488
e 155 502
e 155 511
e 155 520
e 155 527
e 155 539
e 155 559
e 155 562
e 155 565
e 155 569
e 155 574
e 155 576
e 155 582
e 155 585
e 155 607
e 155 611
e 155 614
e 155 617
e 155 618
e 155 629
e 155 651
e 155 657
e 155 661
e 155 665
e 155 691
e 155 697
e 155 714
e 155 725
e 155 726
e 155 727
e 155 736
e 155 754
e 155 757
e 155 762
e 155 768
e 155 777
e 155 787
e 155 800
e 155 812
e 155 816
e 155 833
e 155 841
e 155 855
e 155 856
e 155 868
e 155 878
e 155 889
e 155 901
e 155 910
e 155 912
e 155 915
e 155 920
e 155 925
e 155 930
e 155 953
e 155 971
e 155 976
e 155 978
e 155 980
e 155 989
e 155 999
e 156 259
e 156 265
e 156 278
e 156 285
e 156 297
e 156 324
e 156 335
e 156 362
e 156 370
e 156 374
e 156 376
e 156 384
e 156 389
e 156 390
e 156 394
e 156 403
e 156 408
e 156 409
e 156 413
e 156 431
e 156 451
e 156 456
e 156 482
e 156 483
e 156 484
e 156 488
e 156 491
e 156 493
e 156 507
e 156 520
e 156 543
e 156 547
e 156 593
e 156 615
e 156 620
e 156 628
e 156 640
e 156 641
e 156 643
e 156 664
e 156 669
e 156 673
e 156 676
e 156 725
e 156 728
e 156 745
e 156 753
e 156 758
e 156 762
e 156 778
e 156 812
e 156 819
e 156 822
e 156 834
e 156 848
e 156 852
e 156 902
e 156 913
e 156 920
e 156 923
e 156 925
e 156 929
e 156 948
e 156 960
e 156 978
e 156 989
e 157 256
e 157 260
e 157 264
e 157 270
e 157 274
e 157 278
e 157 285
e 157 287
e 157 291
e 157 295
e 157 300
e 157 301
e 157 307
e 157 333
e 157 349
e 157 350
e 157 368
e 157 390
e 157 393
e 157 398
e 157 418
e 157 423
e 157 437
e 157 447
e 157 449
e 157 452
e 157 463
e 157 481
e 157 487
e 157 489
e 157 492
e 157 511
e 157 513
e 157 517
e 157 518
e 157 544
e 157 551
e 157 555
e 157 558
e 157 567
e 157 575
e 157 580
e 157 603
e 157 610
e 157 625
e 157 634
e 157 639
e 157 658
e 157 686
e 157 708
e 157 709
e 157 711
e 157 734
e 157 744
e 157 759
e 157 768
e 157 769
e 157 779
e 157 792
e 157 799
e 157 811
e 157 814
e 157 815
e 157 816
e 157 817
e 157 822
e 157 830
e 157 840
e 157 847
e 157 852
e 157 862
e 157 864
e 157 878
e 157 887
e 157 895
e 157 920
e 157 922
e 157 927
e 157 928
e 157 932
e 157 933
e 157 936
e 157 948
e 157 969
e 157 980
e 158 254
e 158 277
e 158 283
e 158 296
e 158 323
e 158 327
e 158 328
e 158 334
e 158 344
e 158 347
e 158 348
e 158 350
e 158 360
e 158 366
e 158 385
e 158 396
e 158 414
e 158 425
e 158 439
e 158 449
e 158 451
e 158 459
e 158 460
e 158 461
e 158 476
e 158 486
e 158 505
e 158 523
e 158 536
e 158 537
e 158 540
e 158 549
e 158 550
e 158 589
e 158 599
e 158 610
e 158 611
e 158 621
e 158 635
e 158 637
e 158 656
e 158 657
e 158 660
e 158 662
e 158 679
e 158 680
e 158 699
e 158 713
e 158 714
e 158 750
e 158 751
e 158 762
e 158 774
e 158 782
e 158 809
e 158 818
e 158 831
e 158 835
e 158 839
e 158 856
e 158 865
e 158 872
e 158 901
e 158 924
e 158 928
e 158 936
e 158 938
e 158 943
e 158 945
e 158 946
e 158 954
e 158 964
e 158 999
e 159 259
e 159 260
e 159 261
e 159 268
e 159 274
e 159 279
e 159 280
e 159 296
e 159 308
e 159 331
e 159 364
e 159 367
e 159 371
e 159 372
e 159 385
e 159 386
e 159 396
e 159 400
e 159 428
e 159 429
e 159 450
e 159 472
e 159 494
e 159 495
e 159 497
e 159 501
e 159 504
e 159 530
e 159 535
e 159 546
e 159 551
e 159 575
e 159 584
e 159 600
e 159 605
e 159 610
e 159 630
e 159 633
e 159 659
e 159 689
e 159 698
e 159 705
e 159 714
e 159 718
e 159 728
e 159 729
e 159 735
e 159 740
e 159 779
e 159 783
e 159 814
e 159 821
e 159 829
e 159 831
e 159 835
e 159 844
e 159 850
e 159 856
e 159 858
e 159 870
e 159 875
e 159 877
e 159 883
e 159 907
e 159 908
e 159 912
e 159 915
e 159 923
e 159 932
e 159 944
e 159 945
e 159 956
e 159 966
e 159 968
e 159 974
e 159 976
e 159 979
e 159 980
e 160 251
e 160 258
e 160 263
e 160 267
e 160 273
e 160 277
e 160 317
e 160 319
e 160 324
e 160 331
e 160 345
e 160 351
e 160 354
e 160 359
e 160 360
e 160 362
e 160 419
e 160 427
e 160 439
e 160 454
e 160 470
e 160 475
e 160 482
e 160 496
e 160 507
e 160 524
e 160 573
e 160 586
e 160 589
e 160 592
e 160 606
e 160 612
e 160 658
e 160 661
e 160 666
e 160 679
e 160 699
e 160 702
e 160 741
e 160 749
e 160 751
e 160 762
e 160 765
e 160 767
e 160 770
e 160 777
e 160 782
e 160 786
e 160 805
e 160 827
e 160 832
e 160 839
e 160 850
e 160 874
e 160 882
e 160 890
e 160 896
e 160 910
e 160 912
e 160 915
e 160 928
e 160 932
e 160 936
e 160 938
e 160 942
e 160 950
e 160 958
e 160 967
e 160 973
e 160 986
e 160 995
e 161 281
e 161 282
e 161 289
e 161 302
e 161 320
e 161 325
e 161 331
e 161 332
e 161 344
e 161 352
e 161 357
e 161 364
e 161 366
e 161 414
e 161 418
e 161 427
e 161 483
e 161 484
e 161 496
e 161 497
e 161 504
e 161 510
e 161 525
e 161 527
e 161 548
e 161 556
e 161 567
e 161 570
e 161 575
e 161 585
e 161 591
e 161 601
e 161 610
e 161 621
e 161 628
e 161 639
e 161 643
e 161 647
e 161 652
e 161 659
e 161 695
e 161 720
e 161 722
e 161 729
e 161 739
e 161 743
e 161 749
e 161 753
e 161 759
e 161 763
e 161 770
e 161 795
e 161 802
e 161 810
e 161 822
e 161 826
e 161 843
e 161 851
e 161 857
e 161 865
e 161 867
e 161 872
e 161 878
e 161 880
e 161 895
e 161 899
e 161 900
e 161 902
e 161 923
e 161 930
e 161 935
e 161 939
e 161 951
e 161 959
e 161 965
e 161 981
e 161 993
e 161 994
e 162 255
e 162 256
e 162 265
e 162 273
e 162 276
e 162 277
e 162 279
e 162 280
e 162 281
e 162 283
e 162 286
e 162 291
e 162 319
e 162 336
e 162 337
e 162 343
e 162 344
e 162 352
e 162 353
e 162 368
e 162 392
e 162 403
e 162 420
e 162 464
e 162 467
e 162 481
e 162 484
e 162 507
e 162 523
e 162 525
e 162 526
e 162 530
e 162 563
e 162 564
e 162 567
e 162 568
e 162 580
e 162 585
e 162 591
e 162 607
e 162 615
e 162 649
e 162 653
e 162 657
e 162 674
e 162 675
e 162 683
e 162 688
e 162 690
e 162 700
e 162 712
e 162 717
e 162 721
e 162 728
e 162 732
e 162 738
e 162 743
e 162 759
e 162 760
e 162 790
e 162 793
e 162 795
e 162 816
e 162 829
e 162 833
e 162 835
e 162 839
e 162 851
e 162 860
e 162 861
e 162 873
e 162 887
e 162 888
e 162 893
e 162 894
e 162 904
e 162 907
e 162 928
e 162 933
e 162 945
e 162 955
e 162 971
e 162 974
e 162 979
e 163 255
e 163 257
e 163 261
e 163 266
e 163 267
e 163 269
e 163 270
e 163 276
e 163 293
e 163 302
e 163 308
e 163 312
e 163 338
e 163 342
e 163 346
e 163 361
e 163 365
e 163 371
e 163 374
e 163 418
e 163 420
e 163 422
e 163 465
e 163 468
e 163 470
e 163 488
e 163 493
e 163 527
e 163 543
e 163 545
e 163 546
e 163 552
e 163 562
e 163 567
e 163 589
e 163 603
e 163 606
e 163 625
e 163 626
e 163 627
e 163 637
e 163 640
e 163 655
e 163 656
e 163 660
e 163 664
e 163 665
e 163 671
e 163 676
e 163 687
e 163 702
e 163 714
e 163 716
e 163 717
e 163 718
e 163 728
e 163 731
e 163 732
e 163 737
e 163 745
e 163 769
e 163 770
e 163 773
e 163 783
e 163 784
e 163 787
e 163 809
e 163 820
e 163 821
e 163 826
e 163 841
e 163 864
e 163 871
e 163 872
e 163 883
e 163 886
e 163 891
e 163 905
e 163 907
e 163 910
e 163 915
e 163 931
e 163 942
e 163 952
e 163 960
e 163 965
e 163 967
e 163 978
e 163 991
e 164 256
e 164 275
e 164 284
e 164 286
e 164 310
e 164 313
e 164 316
e 164 317
e 164 364
e 164 368
e 164 377
e 164 384
e 164 387
e 164 401
e 164 422
e 164 423
e 164 425
e 164 451
e 164 454
e 164 461
e 164 467
e 164 471
e 164 474
e 164 502
e 164 504
e 164 524
e 164 531
e 164 534
e 164 546
e 164 593
e 164 604
e 164 619
e 164 652
e 164 658
e 164 660
e 164 668
e 164 670
e 164 676
e 164 679
e 164 689
e 164 699
e 164 708
e 164 732
e 164 762
e 164 775
e 164 785
e 164 787
e 164 821
e 164 824
e 164 831
e 164 842
e 164 852
e 164 878
e 164 906
e 164 917
e 164 923
e 164 930
e 164 938
e 164 959
e 164 964
e 164 965
e 164 970
e 164 982
e 164 985
e 164 996
e 165 254
e 165 255
e 165 265
e 165 272
e 165 286
e 165 293
e 165 295
e 165 318
e 165 324
e 165 325
e 165 335
e 165 337
e 165 352
e 165 353
e 165 360
e 165 371
e 165 373
e 165 377
e 165 387
e 165 419
e 165 422
e 165 428
e 165 432
e 165 434
e 165 458
e 165 466
e 165 526
e 165 534
e 165 542
e 165 558
e 165 561
e 165 565
e 165 573
e 165 584
e 165 608
e 165 617
e 165 647
e 165 654
e 165 656
e 165 658
e 165 665
e 165 677
e 165 679
e 165 714
e 165 718
e 165 738
e 165 743
e 165 765
e 165 784
e 165 785
e 165 806
e 165 817
e 165 820
e 165 856
e 165 858
e 165 863
e 165 866
e 165 869
e 165 879
e 165 896
e 165 910
e 165 914
e 165 931
e 165 934
e 165 949
e 165 966
e 165 972
e 165 978
e 165 982
e 165 998
e 166 255
e 166 260
e 166 267
e 166 270
e 166 275
e 166 280
e 166 292
e 166 295
e 166 315
e 166 326
e 166 327
e 166 345
e 166 353
e 166 370
e 166 405
e 166 406
e 166 409
e 166 411
e 166 427
e 166 435
e 166 437
e 166 453
e 166 459
e 166 463
e 166 471
e 166 476
e 166 488
e 166 494
e 166 510
e 166 526
e 166 535
e 166 538
e 166 540
e 166 547
e 166 558
e 166 561
e 166 572
e 166 593
e 166 598
e 166 600
e 166 611
e 166 622
e 166 624
e 166 630
e 166 654
e 166 667
e 166 672
e 166 680
e 166 698
e 166 729
e 166 732
e 166 750
e 166 756
e 166 774
e 166 776
e 166 780
e 166 785
e 166 792
e 166 800
e 166 801
e 166 806
e 166 824
e 166 825
e 166 852
e 166 858
e 166 872
e 166 875
e 166 880
e 166 889
e 166 892
e 166 895
e 166 899
e 166 905
e 166 908
e 166 930
e 166 969
e 166 975
e 166 982
e 166 989
e 166 994
e 167 272
e 167 293
e 167 303
e 167 322
e 167 327
e 167 345
e 167 354
e 167 363
e 167 364
e 167 370
e 167 392
e 167 399
e 167 412
e 167 438
e 167 441
e 167 442
e 167 453
e 167 455
e 167 458
e 167 464
e 167 478
e 167 482
e 167 517
e 167 521
e 167 522
e 167 528
e 167 535
e 167 555
e 167 558
e 167 564
e 167 581
e 167 587
e 167 591
e 167 594
e 167 605
e 167 607
e 167 608
e 167 609
e 167 628
e 167 636
e 167 642
e 167 648
e 167 649
e 167 665
e 167 686
e 167 687
e 167 722
e 167 723
e 167 734
e 167 757
e 167 762
e 167 779
e 167 780
e 167 784
e 167 788
e 167 798
e 167 813
e 167 822
e 167 828
e 167 830
e 167 836
e 167 839
e 167 841
e 167 843
e 167 853
e 167 862
e 167 867
e 167 885
e 167 888
e 167 900
e 167 906
e 167 917
e 167 925
e 167 934
e 167 945
e 167 949
e 167 956
e 167 962
e 167 972
e 167 973
e 167 981
e 167 987
e 167 999
e 168 251
e 168 268
e 168 287
e 168 319
e 168 322
e 168 330
e 168 338
e 168 340
e 168 342
e 168 343
e 168 354
e 168 360
e 168 368
e 168 375
e 168 388
e 168 392
e 168 404
e 168 405
e 168 407
e 168 408
e 168 409
e 168 418
e 168 423
e 168 442
e 168 444
e 168 468
e 168 485
e 168 492
e 168 503
e 168 515
e 168 516
e 168 531
e 168 538
e 168 546
e 168 561
e 168 571
e 168 586
e 168 598
e 168 618
e 168 622
e 168 623
e 168 630
e 168 641
e 168 665
e 168 679
e 168 685
e 168 695
e 168 701
e 168 740
e 168 750
e 168 779
e 168 780
e 168 788
e 168 793
e 168 795
e 168 797
e 168 822
e 168 833
e 168 834
e 168 841
e 168 846
e 168 850
e 168 868
e 168 874
e 168 885
e 168 904
e 168 906
e 168 908
e 168 910
e 168 939
e 168 945
e 168 963
e 168 968
e 168 976
e 168 977
e 169 276
e 169 291
e 169 306
e 169 307
e 169 317
e 169 321
e 169 323
e 169 331
e 169 332
e 169 336
e 169 347
e 169 351
e 169 353
e 169 373
e 169 377
e 169 391
e 169 397
e 169 399
e 169 413
e 169 414
e 169 428
e 169 436
e 169 438
e 169 444
e 169 457
e 169 489
e 169 492
e 169 506
e 169 510
e 169 528
e 169 532
e 169 533
e 169 538
e 169 540
e 169 545
e 169 564
e 169 572
e 169 573
e 169 575
e 169 600
e 169 618
e 169 626
e 169 629
e 169 633
e 169 650
e 169 667
e 169 671
e 169 698
e 169 716
e 169 731
e 169 745
e 169 758
e 169 770
e 169 778
e 169 808
e 169 810
e 169 823
e 169 839
e 169 842
e 169 843
e 169 880
e 169 896
e 169 902
e 169 905
e 169 908
e 169 910
e 169 948
e 169 950
e 169 980
e 169 999
e 170 253
e 170 254
e 170 256
e 170 260
e 170 268
e 170 276
e 170 286
e 170 301
e 170 316
e 170 326
e 170 328
e 170 336
e 170 346
e 170 378
e 170 383
e 170 384
e 170 388
e 170 397
e 170 411
e 170 432
e 170 445
e 170 449
e 170 450
e 170 467
e 170 470
e 170 479
e 170 490
e 170 495
e 170 497
e 170 519
e 170 521
e 170 527
e 170 538
e 170 540
e 170 549
e 170 554
e 170 555
e 170 565
e 170 566
e 170 568
e 170 574
e 170 580
e 170 582
e 170 586
e 170 593
e 170 614
e 170 620
e 170 635
e 170 639
e 170 663
e 170 664
e 170 666
e 170 668
e 170 705
e 170 708
e 170 709
e 170 711
e 170 713
e 170 729
e 170 733
e 170 736
e 170 746
e 170 754
e 170 767
e 170 777
e 170 781
e 170 793
e 170 819
e 170 842
e 170 851
e 170 858
e 170 859
e 170 869
e 170 910
e 170 925
e 170 938
e 170 940
e 170 954
e 170 965
e 170 975
e 170 979
e 170 983
e 170 991
e 171 317
e 171 321
e 171 353
e 171 354
e 171 359
e 171 380
e 171 389
e 171 390
e 171 395
e 171 402
e 171 426
e 171 429
e 171 433
e 171 468
e 171 475
e 171 489
e 171 490
e 171 492
e 171 503
e 171 505
e 171 507
e 171 512
e 171 513
e 171 514
e 171 518
e 171 526
e 171 530
e 171 531
e 171 538
e 171 544
e 171 580
e 171 595
e 171 613
e 171 614
e 171 617
e 171 618
e 171 622
e 171 624
e 171 625
e 171 642
e 171 654
e 171 671
e 171 672
e 171 673
e 171 685
e 171 712
e 171 715
e 171 729
e 171 731
e 171 736
e 171 750
e 171 752
e 171 764
e 171 788
e 171 806
e 171 816
e 171 821
e 171 824
e 171 838
e 171 844
e 171 848
e 171 852
e 171 856
e 171 881
e 171 909
e 171 912
e 171 918
e 171 952
e 171 964
e 171 970
e 171 973
e 171 981
e 171 990
e 171 1000
e 172 256
e 172 262
e 172 265
e 172 274
e 172 284
e 172 287
e 172 337
e 172 344
e 172 349
e 172 377
e 172 419
e 172 421
e 172 424
e 172 451
e 172 469
e 172 505
e 172 514
e 172 530
e 172 545
e 172 550
e 172 553
e 172 558
e 172 569
e 172 572
e 172 575
e 172 576
e 172 578
e 172 605
e 172 610
e 172 615
e 172 616
e 172 621
e 172 633
e 172 639
e 172 655
e 172 659
e 172 677
e 172 681
e 172 713
e 172 721
e 172 723
e 172 740
e 172 745
e 172 761
e 172 802
e 172 804
e 172 810
e 172 823
e 172 831
e 172 840
e 172 843
e 172 848
e 172 861
e 172 862
e 172 863
e 172 872
e 172 880
e 172 890
e 172 918
e 172 919
e 172 923
e 172 930
e 172 982
e 172 984
e 172 991
e 173 256
e 173 262
e 173 264
e 173 274
e 173 299
e 173 303
e 173 327
e 173 342
e 173 348
e 173 353
e 173 361
e 173 370
e 173 372
e 173 378
e 173 384
e 173 399
e 173 413
e 173 416
e 173 421
e 173 422
e 173 429
e 173 431
e 173 462
e 173 469
e 173 470
e 173 480
e 173 489
e 173 511
e 173 522
e 173 528
e 173 554
e 173 583
e 173 590
e 173 611
e 173 617
e 173 620
e 173 632
e 173 659
e 173 704
e 173 707
e 173 720
e 173 721
e 173 727
e 173 756
e 173 771
e 173 786
e 173 793
e 173 794
e 173 796
e 173 810
e 173 811
e 173 830
e 173 845
e 173 849
e 173 850
e 173 858
e 173 861
e 173 864
e 173 873
e 173 884
e 173 890
e 173 915
e 173 953
e 173 964
e 173 969
e 173 972
e 173 987
e 173 988
e 173 996
e 173 998
e 174 262
e 174 273
e 174 275
e 174 285
e 174 297
e 174 302
e 174 309
e 174 311
e 174 353
e 174 359
e 174 360
e 174 379
e 174 385
e 174 388
e 174 391
e 174 397
e 174 399
e 174 401
e 174 413
e 174 417
e 174 440
e 174 443
e 174 452
e 174 453
e 174 483
e 174 489
e 174 513
e 174 516
e 174 557
e 174 567
e 174 568
e 174 571
e 174 578
e 174 598
e 174 602
e 174 606
e 174 632
e 174 638
e 174 648
e 174 654
e 174 657
e 174 658
e 174 667
e 174 669
e 174 675
e 174 682
e 174 684
e 174 697
e 174 705
e 174 706
e 174 709
e 174 711
e 174 723
e 174 735
e 174 751
e 174 753
e 174 754
e 174 767
e 174 818
e 174 819
e 174 841
e 174 842
e 174 860
e 174 867
e 174 871
e 174 885
e 174 887
e 174 911
e 174 932
e 174 935
e 174 945
e 174 948
e 174 962
e 174 963
e 174 977
e 174 985
e 174 988
e 174 994
e 174 999
e 175 266
e 175 274
e 175 278
e 175 279
e 175 290
e 175 291
e 175 297
e 175 304
e 175 305
e 175 314
e 175 320
e 175 326
e 175 328
e 175 331
e 175 332
e 175 335
e 175 342
e 175 375
e 175 377
e 175 394
e 175 404
e 175 412
e 175 419
e 175 438
e 175 441
e 175 445
e 175 448
e 175 468
e 175 469
e 175 485
e 175 496
e 175 501
e 175 504
e 175 509
e 175 517
e 175 522
e 175 524
e 175 528
e 175 548
e 175 561
e 175 564
e 175 577
e 175 600
e 175 614
e 175 635
e 175 641
e 175 653
e 175 659
e 175 668
e 175 672
e 175 692
e 175 703
e 175 731
e 175 743
e 175 745
e 175 759
e 175 763
e 175 788
e 175 793
e 175 820
e 175 843
e 175 847
e 175 859
e 175 861
e 175 879
e 175 908
e 175 911
e 175 912
e 175 916
e 175 935
e 175 937
e 175 958
e 175 966
e 175 967
e 175 980
e 175 985
e 175 986
e 176 252
e 176 261
e 176 282
e 176 284
e 176 302
e 176 310
e 176 312
e 176 319
e 176 344
e 176 384
e 176 387
e 176 389
e 176 396
e 176 411
e 176 419
e 176 432
e 176 440
e 176 448
e 176 451
e 176 453
e 176 457
e 176 463
e 176 486
e 176 496
e 176 513
e 176 517
e 176 537
e 176 550
e 176 555
e 176 566
e 176 568
e 176 597
e 176 644
e 176 650
e 176 658
e 176 676
e 176 682
e 176 689
e 176 711
e 176 723
e 176 725
e 176 727
e 176 735
e 176 745
e 176 749
e 176 768
e 176 773
e 176 774
e 176 790
e 176 812
e 176 814
e 176 817
e 176 821
e 176 823
e 176 835
e 176 843
e 176 852
e 176 853
e 176 862
e 176 887
e 176 896
e 176 905
e 176 909
e 176 915
e 176 919
e 176 924
e 176 927
e 176 946
e 176 948
e 176 949
e 176 966
e 176 969
e 176 978
e 176 979
e 176 992
e 177 258
e 177 274
e 177 285
e 177 289
e 177 290
e 177 296
e 177 297
e 177 300
e 177 306
e 177 310
e 177 317
e 177 330
e 177 332
e 177 333
e 177 337
e 177 342
e 177 344
e 177 346
e 177 347
e 177 361
e 177 374
e 177 390
e 177 398
e 177 400
e 177 408
e 177 419
e 177 433
e 177 438
e 177 445
e 177 447
e 177 448
e 177 450
e 177 457
e 177 473
e 177 501
e 177 516
e 177 526
e 177 537
e 177 544
e 177 587
e 177 590
e 177 592
e 177 623
e 177 624
e 177 654
e 177 663
e 177 666
e 177 678
e 177 690
e 177 712
e 177 727
e 177 731
e 177 743
e 177 753
e 177 759
e 177 774
e 177 779
e 177 785
e 177 787
e 177 789
e 177 794
e 177 815
e 177 824
e 177 826
e 177 839
e 177 840
e 177 846
e 177 848
e 177 857
e 177 885
e 177 892
e 177 893
e 177 896
e 177 900
e 177 918
e 177 942
e 177 951
e 177 961
e 177 965
e 177 970
e 177 986
e 177 1000
e 178 253
e 178 254
e 178 292
e 178 293
e 178 294
e 178 297
e 178 303
e 178 312
e 178 346
e 178 360
e 178 376
e 178 402
e 178 415
e 178 417
e 178 448
e 178 454
e 178 463
e 178 464
e 178 468
e 178 471
e 178 510
e 178 532
e 178 542
e 178 551
e 178 560
e 178 561
e 178 562
e 178 573
e 178 591
e 178 595
e 178 603
e 178 613
e 178 622
e 178 645
e 178 649
e 178 659
e 178 680
e 178 691
e 178 698
e 178 700
e 178 702
e 178 705
e 178 717
e 178 721
e 178 730
e 178 755
e 178 763
e 178 808
e 178 814
e 178 820
e 178 822
e 178 826
e 178 828
e 178 831
e 178 840
e 178 853
e 178 863
e 178 887
e 178 938
e 178 941
e 178 945
e 178 950
e 178 957
e 178 961
e 178 965
e 178 995
e 179 253
e 179 259
e 179 266
e 179 273
e 179 297
e 179 298
e 179 301
e 179 307
e 179 315
e 179 338
e 179 340
e 179 350
e 179 354
e 179 365
e 179 375
e 179 376
e 179 381
e 179 406
e 179 411
e 179 430
e 179 442
e 179 451
e 179 463
e 179 469
e 179 481
e 179 489
e 179 501
e 179 502
e 179 520
e 179 524
e 179 540
e 179 541
e 179 550
e 179 562
e 179 564
e 179 566
e 179 584
e 179 590
e 179 597
e 179 607
e 179 637
e 179 659
e 179 668
e 179 673
e 179 708
e 179 724
e 179 729
e 179 739
e 179 750
e 179 763
e 179 780
e 179 784
e 179 785
e 179 792
e 179 800
e 179 805
e 179 809
e 179 826
e 179 828
e 179 841
e 179 873
e 179 880
e 179 883
e 179 892
e 179 899
e 179 907
e 179 908
e 179 909
e 179 972
e 179 984
e 179 997
e 179 999
e 180 266
e 180 271
e 180 287
e 180 291
e 180 325
e 180 336
e 180 337
e 180 339
e 180 345
e 180 353
e 180 367
e 180 374
e 180 385
e 180 402
e 180 423
e 180 425
e 180 443
e 180 446
e 180 466
e 180 468
e 180 474
e 180 480
e 180 509
e 180 530
e 180 535
e 180 547
e 180 549
e 180 553
e 180 564
e 180 570
e 180 584
e 180 594
e 180 598
e 180 606
e 180 612
e 180 633
e 180 636
e 180 650
e 180 659
e 180 673
e 180 677
e 180 686
e 180 690
e 180 691
e 180 697
e 180 704
e 180 723
e 180 728
e 180 733
e 180 749
e 180 760
e 180 767
e 180 768
e 180 769
e 180 783
e 180 829
e 180 830
e 180 831
e 180 847
e 180 855
e 180 856
e 180 862
e 180 866
e 180 888
e 180 894
e 180 938
e 180 974
e 180 977
e 181 262
e 181 270
e 181 287
e 181 299
e 181 313
e 181 316
e 181 323
e 181 353
e 181 359
e 181 362
e 181 363
e 181 374
e 181 387
e 181 400
e 181 403
e 181 415
e 181 426
e 181 439
e 181 451
e 181 456
e 181 467
e 181 498
e 181 506
e 181 510
e 181 561
e 181 568
e 181 575
e 181 580
e 181 584
e 181 594
e 181 597
e 181 600
e 181 601
e 181 603
e 181 607
e 181 613
e 181 616
e 181 623
e 181 624
e 181 626
e 181 658
e 181 701
e 181 705
e 181 716
e 181 724
e 181 729
e 181 737
e 181 743
e 181 759
e 181 770
e 181 774
e 181 781
e 181 791
e 181 792
e 181 802
e 181 804
e 181 810
e 181 824
e 181 827
e 181 845
e 181 850
e 181 867
e 181 895
e 181 904
e 181 917
e 181 925
e 181 944
e 181 946
e 181 980
e 181 992
e 181 993
e 181 998
e 181 999
e 182 252
e 182 285
e 182 289
e 182 315
e 182 324
e 182 348
e 182 366
e 182 373
e 182 392
e 182 408
e 182 423
e 182 425
e 182 437
e 182 449
e 182 463
e 182 467
e 182 488
e 182 505
e 182 508
e 182 537
e 182 541
e 182 551
e 182 560
e 182 584
e 182 597
e 182 600
e 182 605
e 182 619
e 182 623
e 182 625
e 182 647
e 182 661
e 182 675
e 182 681
e 182 694
e 182 704
e 182 714
e 182 716
e 182 725
e 182 730
e 182 731
e 182 735
e 182 736
e 182 739
e 182 740
e 182 745
e 182 756
e 182 759
e 182 760
e 182 791
e 182 801
e 182 802
e 182 823
e 182 830
e 182 836
e 182 837
e 182 858
e 182 869
e 182 875
e 182 880
e 182 882
e 182 903
e 182 927
e 182 928
e 182 935
e 182 937
e 182 954
e 182 973
e 182 974
e 182 976
e 182 978
e 182 987
e 182 992
e 182 994
e 182 997
e 183 251
e 183 255
e 183 268
e 183 282
e 183 295
e 183 301
e 183 303
e 183 331
e 183 355
e 183 359
e 183 360
e 183 363
e 183 387
e 183 410
e 183 417
e 183 420
e 183 423
e 183 493
e 183 504
e 183 514
e 183 529
e 183 533
e 183 540
e 183 543
e 183 551
e 183 557
e 183 563
e 183 567
e 183 568
e 183 570
e 183 588
e 183 589
e 183 601
e 183 605
e 183 608
e 183 633
e 183 636
e 183 637
e 183 638
e 183 650
e 183 685
e 183 689
e 183 690
e 183 694
e 183 704
e 183 706
e 183 708
e 183 717
e 183 748
e 183 749
e 183 762
e 183 780
e 183 790
e 183 825
e 183 831
e 183 848
e 183 851
e 183 853
e 183 858
e 183 877
e 183 880
e 183 884
e 183 896
e 183 900
e 183 901
e 183 908
e 183 940
e 183 963
e 183 967
e 183 977
e 183 980
e 183 983
e 184 251
e 184 253
e 184 282
e 184 292
e 184 295
e 184 296
e 184 308
e 184 332
e 184 353
e 184 365
e 184 371
e 184 396
e 184 408
e 184 415
e 184 417
e 184 419
e 184 424
e 184 433
e 184 438
e 184 448
e 184 457
e 184 465
e 184 467
e 184 474
e 184 476
e 184 477
e 184 483
e 184 497
e 184 509
e 184 513
e 184 533
e 184 544
e 184 546
e 184 556
e 184 560
e 184 563
e 184 599
e 184 604
e 184 606
e 184 621
e 184 674
e 184 681
e 184 686
e 184 688
e 184 700
e 184 737
e 184 738
e 184 747
e 184 754
e 184 776
e 184 780
e 184 788
e 184 790
e 184 817
e 184 824
e 184 829
e 184 856
e 184 875
e 184 878
e 184 883
e 184 889
e 184 890
e 184 897
e 184 901
e 184 909
e 184 918
e 184 948
e 184 959
e 184 975
e 184 977
e 184 978
e 184 981
e 184 986
e 184 992
e 185 280
e 185 281
e 185 285
e 185 288
e 185 293
e 185 301
e 185 313
e 185 315
e 185 320
e 185 323
e 185 327
e 185 338
e 185 356
e 185 359
e 185 360
e 185 364
e 185 365
e 185 381
e 185 389
e 185 427
e 185 428
e 185 436
e 185 438
e 185 446
e 185 448
e 185 449
e 185 450
e 185 465
e 185 466
e 185 469
e 185 473
e 185 486
e 185 511
e 185 524
e 185 533
e 185 536
e 185 541
e 185 544
e 185 550
e 185 576
e 185 583
e 185 587
e 185 622
e 185 625
e 185 627
e 185 628
e 185 633
e 185 653
e 185 659
e 185 678
e 185 685
e 185 689
e 185 702
e 185 721
e 185 722
e 185 725
e 185 742
e 185 765
e 185 778
e 185 803
e 185 804
e 185 819
e 185 824
e 185 844
e 185 877
e 185 889
e 185 902
e 185 920
e 185 928
e 185 969
e 185 978
e 185 981
e 185 988
e 185 992
e 186 251
e 186 252
e 186 262
e 186 264
e 186 282
e 186 285
e 186 288
e 186 290
e 186 291
e 186 295
e 186 303
e 186 314
e 186 328
e 186 344
e 186 346
e 186 359
e 186 370
e 186 375
e 186 379
e 186 388
e 186 389
e 186 393
e 186 397
e 186 407
e 186 410
e 186 423
e 186 426
e 186 432
e 186 462
e 186 467
e 186 477
e 186 481
e 186 484
e 186 511
e 186 516
e 186 532
e 186 546
e 186 554
e 186 559
e 186 562
e 186 580
e 186 619
e 186 623
e 186 641
e 186 646
e 186 682
e 186 712
e 186 714
e 186 742
e 186 746
e 186 749
e 186 757
e 186 762
e 186 779
e 186 780
e 186 787
e 186 795
e 186 800
e 186 801
e 186 824
e 186 834
e 186 836
e 186 837
e 186 839
e 186 848
e 186 867
e 186 869
e 186 885
e 186 895
e 186 910
e 186 914
e 186 930
e 186 958
e 186 967
e 186 987
e 186 1000
e 187 256
e 187 260
e 187 265
e 187 271
e 187 278
e 187 298
e 187 305
e 187 307
e 187 315
e 187 317
e 187 350
e 187 356
e 187 364
e 187 365
e 187 370
e 187 376
e 187 393
e 187 399
e 187 415
e 187 450
e 187 459
e 187 484
e 187 485
e 187 491
e 187 494
e 187 496
e 187 519
e 187 526
e 187 528
e 187 540
e 187 554
e 187 566
e 187 570
e 187 577
e 187 601
e 187 602
e 187 610
e 187 627
e 187 631
e 187 637
e 187 660
e 187 670
e 187 694
e 187 707
e 187 712
e 187 716
e 187 727
e 187 734
e 187 738
e 187 751
e 187 757
e 187 770
e 187 774
e 187 796
e 187 813
e 187 841
e 187 859
e 187 861
e 187 871
e 187 882
e 187 892
e 187 896
e 187 898
e 187 905
e 187 910
e 187 918
e 187 926
e 187 929
e 187 936
e 187 940
e 187 946
e 187 953
e 187 958
e 187 962
e 187 975
e 187 976
e 187 995
e 188 262
e 188 267
e 188 287
e 188 302
e 188 306
e 188 307
e 188 308
e 188 318
e 188 321
e 188 326
e 188 328
e 188 332
e 188 363
e 188 371
e 188 386
e 188 388
e 188 395
e 188 413
e 188 440
e 188 441
e 188 449
e 188 462
e 188 475
e 188 476
e 188 492
e 188 493
e 188 494
e 188 512
e 188 516
e 188 528
e 188 552
e 188 562
e 188 570
e 188 575
e 188 583
e 188 619
e 188 621
e 188 625
e 188 633
e 188 641
e 188 645
e 188 649
e 188 651
e 188 653
e 188 671
e 188 682
e 188 687
e 188 703
e 188 708
e 188 713
e 188 716
e 188 720
e 188 723
e 188 735
e 188 750
e 188 759
e 188 765
e 188 799
e 188 818
e 188 823
e 188 825
e 188 831
e 188 835
e 188 858
e 188 865
e 188 869
e 188 877
e 188 882
e 188 890
e 188 891
e 188 907
e 188 911
e 188 912
e 188 946
e 188 947
e 188 949
e 188 957
e 188 958
e 188 979
e 189 259
e 189 269
e 189 271
e 189 287
e 189 289
e 189 291
e 189 298
e 189 319
e 189 320
e 189 329
e 189 350
e 189 355
e 189 364
e 189 379
e 189 380
e 189 392
e 189 402
e 189 411
e 189 415
e 189 427
e 189 434
e 189 462
e 189 467
e 189 478
e 189 486
e 189 491
e 189 496
e 189 511
e 189 512
e 189 524
e 189 527
e 189 539
e 189 542
e 189 553
e 189 573
e 189 582
e 189 585
e 189 589
e 189 595
e 189 596
e 189 598
e 189 634
e 189 641
e 189 654
e 189 656
e 189 666
e 189 672
e 189 673
e 189 674
e 189 675
e 189 679
e 189 706
e 189 712
e 189 723
e 189 733
e 189 734
e 189 747
e 189 776
e 189 781
e 189 782
e 189 787
e 189 788
e 189 793
e 189 805
e 189 808
e 189 817
e 189 826
e 189 849
e 189 862
e 189 863
e 189 865
e 189 875
e 189 877
e 189 881
e 189 883
e 189 891
e 189 917
e 189 918
e 189 937
e 189 947
e 189 966
e 189 969
e 189 972
e 189 978
e 189 993
e 190 262
e 190 267
e 190 283
e 190 285
e 190 286
e 190 295
e 190 303
e 190 304
e 190 352
e 190 371
e 190 394
e 190 397
e 190 430
e 190 435
e 190 456
e 190 499
e 190 502
e 190 510
e 190 517
e 190 518
e 190 543
e 190 546
e 190 573
e 190 575
e 190 585
e 190 595
e 190 610
e 190 616
e 190 636
e 190 637
e 190 638
e 190 640
e 190 642
e 190 647
e 190 677
e 190 680
e 190 693
e 190 698
e 190 741
e 190 756
e 190 761
e 190 777
e 190 778
e 190 786
e 190 791
e 190 792
e 190 795
e 190 804
e 190 822
e 190 845
e 190 859
e 190 861
e 190 872
e 190 882
e 190 902
e 190 928
e 190 936
e 190 961
e 190 981
e 190 984
e 190 996
e 191 268
e 191 269
e 191 278
e 191 281
e 191 295
e 191 306
e 191 312
e 191 329
e 191 363
e 191 374
e 191 380
e 191 382
e 191 427
e 191 429
e 191 434
e 191 451
e 191 452
e 191 455
e 191 464
e 191 466
e 191 484
e 191 499
e 191 500
e 191 515
e 191 518
e 191 524
e 191 530
e 191 556
e 191 577
e 191 583
e 191 591
e 191 600
e 191 604
e 191 608
e 191 611
e 191 618
e 191 620
e 191 643
e 191 649
e 191 650
e 191 663
e 191 676
e 191 685
e 191 700
e 191 709
e 191 712
e 191 717
e 191 721
e 191 762
e 191 780
e 191 818
e 191 830
e 191 833
e 191 865
e 191 883
e 191 885
e 191 900
e 191 935
e 191 944
e 191 950
e 191 954
e 191 980
e 191 989
e 191 990
e 191 998
e 192 255
e 192 267
e 192 273
e 192 283
e 192 311
e 192 314
e 192 317
e 192 331
e 192 349
e 192 358
e 192 372
e 192 375
e 192 393
e 192 398
e 192 399
e 192 400
e 192 412
e 192 417
e 192 440
e 192 453
e 192 459
e 192 482
e 192 485
e 192 513
e 192 516
e 192 532
e 192 535
e 192 546
e 192 551
e 192 576
e 192 580
e 192 581
e 192 599
e 192 623
e 192 631
e 192 638
e 192 640
e 192 653
e 192 658
e 192 664
e 192 678
e 192 691
e 192 692
e 192 698
e 192 706
e 192 711
e 192 721
e 192 723
e 192 729
e 192 731
e 192 748
e 192 762
e 192 768
e 192 782
e 192 798
e 192 807
e 192 809
e 192 810
e 192 815
e 192 817
e 192 830
e 192 841
e 192 848
e 192 852
e 192 882
e 192 901
e 192 903
e 192 927
e 192 937
e 192 941
e 192 944
e 192 947
e 192 963
e 192 983
e 192 985
e 193 265
e 193 266
e 193 270
e 193 283
e 193 293
e 193 297
e 193 309
e 193 314
e 193 331
e 193 356
e 193 357
e 193 373
e 193 384
e 193 391
e 193 410
e 193 416
e 193 419
e 193 431
e 193 454
e 193 462
e 193 468
e 193 495
e 193 499
e 193 507
e 193 514
e 193 548
e 193 568
e 193 584
e 193 585
e 193 592
e 193 634
e 193 643
e 193 645
e 193 662
e 193 674
e 193 683
e 193 686
e 193 688
e 193 694
e 193 697
e 193 707
e 193 710
e 193 720
e 193 737
e 193 747
e 193 769
e 193 771
e 193 773
e 193 784
e 193 797
e 193 807
e 193 822
e 193 824
e 193 840
e 193 846
e 193 854
e 193 858
e 193 859
e 193 860
e 193 880
e 193 882
e 193 887
e 193 897
e 193 901
e 193 908
e 193 924
e 193 948
e 193 953
e 193 971
e 193 975
e 193 982
e 194 259
e 194 261
e 194 271
e 194 273
e 194 282
e 194 286
e 194 292
e 194 308
e 194 310
e 194 319
e 194 320
e 194 321
e 194 325
e 194 344
e 194 369
e 194 372
e 194 377
e 194 391
e 194 426
e 194 430
e 194 438
e 194 444
e 194 445
e 194 446
e 194 486
e 194 492
e 194 533
e 194 549
e 194 550
e 194 552
e 194 564
e 194 568
e 194 579
e 194 586
e 194 589
e 194 610
e 194 635
e 194 639
e 194 654
e 194 655
e 194 662
e 194 667
e 194 683
e 194 692
e 194 694
e 194 702
e 194 714
e 194 718
e 194 726
e 194 750
e 194 773
e 194 781
e 194 784
e 194 787
e 194 789
e 194 802
e 194 806
e 194 814
e 194 822
e 194 826
e 194 827
e 194 840
e 194 848
e 194 862
e 194 872
e 194 878
e 194 879
e 194 890
e 194 891
e 194 910
e 194 919
e 194 934
e 194 982
e 194 984
e 195 253
e 195 255
e 195 289
e 195 306
e 195 325
e 195 349
e 195 350
e 195 353
e 195 377
e 195 378
e 195 389
e 195 400
e 195 407
e 195 409
e 195 425
e 195 427
e 195 437
e 195 441
e 195 445
e 195 446
e 195 498
e 195 506
e 195 533
e 195 606
e 195 622
e 195 626
e 195 660
e 195 678
e 195 684
e 195 698
e 195 708
e 195 715
e 195 720
e 195 722
e 195 734
e 195 748
e 195 750
e 195 755
e 195 767
e 195 782
e 195 792
e 195 797
e 195 852
e 195 859
e 195 868
e 195 870
e 195 903
e 195 908
e 195 915
e 195 916
e 195 928
e 195 934
e 195 936
e 195 953
e 195 956
e 195 968
e 195 970
e 195 972
e 195 973
e 195 988
e 196 256
e 196 276
e 196 288
e 196 300
e 196 306
e 196 324
e 196 339
e 196 341
e 196 350
e 196 355
e 196 360
e 196 372
e 196 383
e 196 391
e 196 397
e 196 408
e 196 420
e 196 427
e 196 436
e 196 439
e 196 446
e 196 447
e 196 474
e 196 483
e 196 488
e 196 506
e 196 511
e 196 512
e 196 547
e 196 562
e 196 567
e 196 572
e 196 582
e 196 599
e 196 625
e 196 632
e 196 642
e 196 648
e 196 684
e 196 694
e 196 699
e 196 721
e 196 731
e 196 742
e 196 752
e 196 768
e 196 787
e 196 790
e 196 833
e 196 838
e 196 839
e 196 841
e 196 855
e 196 865
e 196 867
e 196 869
e 196 874
e 196 876
e 196 879
e 196 881
e 196 884
e 196 908
e 196 912
e 196 916
e 196 979
e 196 980
e 196 982
e 196 983
e 197 251
e 197 257
e 197 278
e 197 281
e 197 300
e 197 322
e 197 324
e 197 364
e 197 367
e 197 385
e 197 408
e 197 444
e 197 449
e 197 462
e 197 474
e 197 499
e 197 520
e 197 529
e 197 532
e 197 534
e 197 544
e 197 552
e 197 569
e 197 571
e 197 573
e 197 583
e 197 592
e 197 597
e 197 606
e 197 613
e 197 631
e 197 635
e 197 650
e 197 664
e 197 665
e 197 672
e 197 673
e 197 684
e 197 727
e 197 737
e 197 739
e 197 755
e 197 760
e 197 764
e 197 769
e 197 779
e 197 784
e 197 810
e 197 831
e 197 838
e 197 851
e 197 857
e 197 860
e 197 885
e 197 890
e 197 891
e 197 892
e 197 904
e 197 909
e 197 918
e 197 922
e 197 939
e 197 941
e 197 943
e 197 963
e 197 966
e 197 967
e 197 969
e 197 983
e 197 989
e 197 993
e 198 257
e 198 260
e 198 264
e 198 275
e 198 276
e 198 280
e 198 283
e 198 291
e 198 292
e 198 293
e 198 332
e 198 344
e 198 348
e 198 358
e 198 363
e 198 365
e 198 374
e 198 376
e 198 394
e 198 404
e 198 405
e 198 413
e 198 435
e 198 450
e 198 452
e 198 460
e 198 463
e 198 467
e 198 469
e 198 475
e 198 478
e 198 483
e 198 501
e 198 511
e 198 512
e 198 524
e 198 533
e 198 541
e 198 548
e 198 552
e 198 555
e 198 565
e 198 567
e 198 571
e 198 574
e 198 578
e 198 583
e 198 613
e 198 633
e 198 639
e 198 684
e 198 699
e 198 700
e 198 714
e 198 736
e 198 742
e 198 760
e 198 783
e 198 796
e 198 811
e 198 817
e 198 833
e 198 843
e 198 857
e 198 861
e 198 867
e 198 876
e 198 887
e 198 895
e 198 898
e 198 909
e 198 914
e 198 928
e 198 929
e 198 937
e 198 950
e 198 968
e 198 981
e 198 984
e 198 997
e 198 999
e 199 252
e 199 263
e 199 265
e 199 281
e 199 295
e 199 307
e 199 331
e 199 333
e 199 338
e 199 350
e 199 351
e 199 353
e 199 371
e 199 379
e 199 392
e 199 409
e 199 419
e 199 435
e 199 459
e 199 460
e 199 483
e 199 484
e 199 505
e 199 515
e 199 520
e 199 541
e 199 542
e 199 553
e 199 557
e 199 570
e 199 577
e 199 579
e 199 581
e 199 591
e 199 604
e 199 611
e 199 619
e 199 628
e 199 631
e 199 633
e 199 643
e 199 669
e 199 679
e 199 680
e 199 685
e 199 709
e 199 714
e 199 718
e 199 723
e 199 753
e 199 771
e 199 775
e 199 792
e 199 794
e 199 808
e 199 815
e 199 819
e 199 824
e 199 825
e 199 835
e 199 845
e 199 846
e 199 848
e 199 867
e 199 901
e 199 903
e 199 919
e 199 929
e 199 940
e 200 251
e 200 254
e 200 257
e 200 259
e 200 274
e 200 276
e 200 283
e 200 288
e 200 290
e 200 294
e 200 320
e 200 329
e 200 336
e 200 339
e 200 351
e 200 355
e 200 369
e 200 372
e 200 391
e 200 411
e 200 416
e 200 417
e 200 418
e 200 419
e 200 438
e 200 453
e 200 455
e 200 462
e 200 472
e 200 486
e 200 502
e 200 507
e 200 508
e 200 530
e 200 531
e 200 533
e 200 553
e 200 575
e 200 578
e 200 597
e 200 611
e 200 614
e 200 620
e 200 631
e 200 656
e 200 669
e 200 671
e 200 680
e 200 708
e 200 717
e 200 718
e 200 727
e 200 728
e 200 734
e 200 736
e 200 745
e 200 750
e 200 751
e 200 767
e 200 780
e 200 782
e 200 797
e 200 851
e 200 867
e 200 878
e 200 886
e 200 887
e 200 898
e 200 901
e 200 906
e 200 908
e 200 923
e 200 937
e 200 948
e 200 951
e 200 967
e 200 977
e 200 985
e 200 992
e 201 270
e 201 278
e 201 286
e 201 290
e 201 299
e 201 307
e 201 315
e 201 337
e 201 357
e 201 361
e 201 378
e 201 381
e 201 398
e 201 400
e 201 402
e 201 403
e 201 404
e 201 407
e 201 408
e 201 413
e 201 420
e 201 449
e 201 452
e 201 499
e 201 528
e 201 529
e 201 533
e 201 540
e 201 553
e 201 562
e 201 587
e 201 593
e 201 594
e 201 614
e 201 620
e 201 637
e 201 638
e 201 658
e 201 661
e 201 662
e 201 682
e 201 690
e 201 691
e 201 725
e 201 727
e 201 729
e 201 730
e 201 758
e 201 786
e 201 791
e 201 792
e 201 799
e 201 814
e 201 825
e 201 829
e 201 837
e 201 851
e 201 854
e 201 864
e 201 868
e 201 873
e 201 875
e 201 889
e 201 907
e 201 908
e 201 924
e 201 926
e 201 960
e 201 973
e 201 977
e 201 980
e 201 984
e 201 989
e 201 991
e 201 999
e 202 253
e 202 260
e 202 266
e 202 272
e 202 274
e 202 288
e 202 294
e 202 309
e 202 319
e 202 320
e 202 321
e 202 345
e 202 347
e 202 354
e 202 366
e 202 367
e 202 371
e 202 380
e 202 391
e 202 392
e 202 409
e 202 419
e 202 429
e 202 431
e 202 449
e 202 455
e 202 496
e 202 501
e 202 507
e 202 531
e 202 532
e 202 535
e 202 538
e 202 544
e 202 545
e 202 547
e 202 557
e 202 560
e 202 602
e 202 605
e 202 629
e 202 644
e 202 648
e 202 658
e 202 662
e 202 675
e 202 681
e 202 686
e 202 696
e 202 697
e 202 727
e 202 745
e 202 748
e 202 754
e 202 786
e 202 806
e 202 817
e 202 825
e 202 837
e 202 860
e 202 863
e 202 872
e 202 878
e 202 888
e 202 897
e 202 908
e 202 909
e 202 917
e 202 918
e 202 926
e 202 930
e 202 936
e 202 945
e 202 946
e 202 952
e 202 964
e 202 977
e 202 981
e 202 982
e 202 983
e 202 993
e 203 266
e 203 267
e 203 269
e 203 273
e 203 276
e 203 287
e 203 289
e 203 300
e 203 306
e 203 318
e 203 338
e 203 342
e 203 345
e 203 349
e 203 352
e 203 357
e 203 375
e 203 383
e 203 409
e 203 420
e 203 431
e 203 445
e 203 453
e 203 456
e 203 460
e 203 492
e 203 494
e 203 498
e 203 511
e 203 512
e 203 526
e 203 554
e 203 561
e 203 578
e 203 582
e 203 595
e 203 600
e 203 607
e 203 618
e 203 635
e 203 636
e 203 647
e 203 656
e 203 665
e 203 669
e 203 671
e 203 675
e 203 681
e 203 689
e 203 697
e 203 731
e 203 747
e 203 755
e 203 760
e 203 770
e 203 792
e 203 794
e 203 813
e 203 815
e 203 818
e 203 827
e 203 831
e 203 835
e 203 849
e 203 851
e 203 868
e 203 881
e 203 882
e 203 896
e 203 908
e 203 918
e 203 924
e 203 941
e 203 955
e 203 964
e 203 972
e 203 976
e 203 977
e 203 992
e 204 260
e 204 261
e 204 267
e 204 279
e 204 305
e 204 307
e 204 316
e 204 320
e 204 330
e 204 332
e 204 334
e 204 364
e 204 366
e 204 373
e 204 379
e 204 393
e 204 412
e 204 436
e 204 442
e 204 446
e 204 468
e 204 470
e 204 479
e 204 493
e 204 510
e 204 513
e 204 532
e 204 577
e 204 596
e 204 602
e 204 609
e 204 612
e 204 619
e 204 630
e 204 646
e 204 659
e 204 664
e 204 672
e 204 674
e 204 690
e 204 714
e 204 719
e 204 735
e 204 762
e 204 769
e 204 779
e 204 808
e 204 811
e 204 835
e 204 836
e 204 846
e 204 872
e 204 894
e 204 899
e 204 903
e 204 914
e 204 931
e 204 935
e 204 965
e 204 974
e 204 987
e 204 999
e 205 251
e 205 257
e 205 258
e 205 264
e 205 266
e 205 267
e 205 268
e 205 276
e 205 277
e 205 327
e 205 331
e 205 336
e 205 356
e 205 357
e 205 361
e 205 371
e 205 379
e 205 384
e 205 389
e 205 394
e 205 399
e 205 413
e 205 424
e 205 425
e 205 437
e 205 440
e 205 456
e 205 461
e 205 465
e 205 470
e 205 480
e 205 488
e 205 493
e 205 508
e 205 516
e 205 522
e 205 526
e 205 539
e 205 556
e 205 561
e 205 580
e 205 585
e 205 591
e 205 593
e 205 596
e 205 600
e 205 631
e 205 636
e 205 640
e 205 642
e 205 649
e 205 655
e 205 658
e 205 672
e 205 673
e 205 682
e 205 704
e 205 706
e 205 708
e 205 709
e 205 712
e 205 730
e 205 734
e 205 735
e 205 740
e 205 742
e 205 744
e 205 765
e 205 772
e 205 774
e 205 780
e 205 793
e 205 795
e 205 801
e 205 810
e 205 818
e 205 843
e 205 846
e 205 852
e 205 853
e 205 854
e 205 880
e 205 881
e 205 883
e 205 884
e 205 895
e 205 907
e 205 908
e 205 929
e 205 937
e 205 945
e 205 948
e 205 962
e 205 970
e 205 971
e 205 997
e 206 251
e 206 253
e 206 258
e 206 260
e 206 265
e 206 268
e 206 287
e 206 297
e 206 307
e 206 320
e 206 331
e 206 347
e 206 362
e 206 370
e 206 398
e 206 400
e 206 403
e 206 431
e 206 433
e 206 440
e 206 452
e 206 459
e 206 478
e 206 482
e 206 483
e 206 484
e 206 491
e 206 494
e 206 502
e 206 514
e 206 542
e 206 559
e 206 561
e 206 567
e 206 576
e 206 601
e 206 603
e 206 608
e 206 611
e 206 625
e 206 635
e 206 651
e 206 653
e 206 665
e 206 666
e 206 671
e 206 712
e 206 713
e 206 717
e 206 729
e 206 735
e 206 743
e 206 745
e 206 752
e 206 758
e 206 761
e 206 769
e 206 774
e 206 782
e 206 794
e 206 799
e 206 801
e 206 803
e 206 807
e 206 848
e 206 851
e 206 864
e 206 876
e 206 877
e 206 888
e 206 891
e 206 897
e 206 903
e 206 909
e 206 920
e 206 925
e 206 928
e 206 938
e 206 970
e 206 982
e 206 984
e 206 985
e 207 261
e 207 282
e 207 287
e 207 299
e 207 306
e 207 317
e 207 320
e 207 327
e 207 342
e 207 363
e 207 364
e 207 371
e 207 390
e 207 391
e 207 396
e 207 413
e 207 423
e 207 425
e 207 427
e 207 447
e 207 454
e 207 474
e 207 495
e 207 510
e 207 513
e 207 521
e 207 527
e 207 532
e 207 540
e 207 564
e 207 611
e 207 612
e 207 636
e 207 641
e 207 651
e 207 656
e 207 675
e 207 685
e 207 687
e 207 690
e 207 698
e 207 700
e 207 701
e 207 730
e 207 734
e 207 735
e 207 740
e 207 743
e 207 748
e 207 766
e 207 771
e 207 787
e 207 795
e 207 797
e 207 803
e 207 815
e 207 826
e 207 835
e 207 841
e 207 845
e 207 849
e 207 857
e 207 862
e 207 864
e 207 865
e 207 891
e 207 896
e 207 910
e 207 911
e 207 924
e 207 927
e 207 931
e 207 944
e 207 945
e 207 947
e 207 949
e 207 950
e 207 952
e 207 961
e 207 980
e 207 989
e 208 254
e 208 257
e 208 258
e 208 259
e 208 262
e 208 272
e 208 274
e 208 298
e 208 322
e 208 324
e 208 341
e 208 343
e 208 344
e 208 361
e 208 362
e 208 367
e 208 370
e 208 398
e 208 413
e 208 429
e 208 432
e 208 441
e 208 492
e 208 505
e 208 511
e 208 529
e 208 544
e 208 562
e 208 567
e 208 568
e 208 572
e 208 577
e 208 583
e 208 597
e 208 610
e 208 623
e 208 625
e 208 632
e 208 643
e 208 649
e 208 654
e 208 657
e 208 660
e 208 677
e 208 713
e 208 717
e 208 747
e 208 764
e 208 768
e 208 815
e 208 858
e 208 862
e 208 871
e 208 882
e 208 892
e 208 896
e 208 898
e 208 907
e 208 910
e 208 914
e 208 920
e 208 940
e 208 941
e 208 951
e 208 954
e 208 967
e 208 974
e 208 984
e 208 994
e 209 258
e 209 261
e 209 277
e 209 289
e 209 306
e 209 310
e 209 325
e 209 327
e 209 336
e 209 348
e 209 354
e 209 376
e 209 398
e 209 406
e 209 410
e 209 411
e 209 414
e 209 420
e 209 426
e 209 472
e 209 477
e 209 481
e 209 483
e 209 484
e 209 518
e 209 522
e 209 528
e 209 549
e 209 550
e 209 562
e 209 565
e 209 584
e 209 603
e 209 604
e 209 608
e 209 622
e 209 630
e 209 636
e 209 638
e 209 653
e 209 667
e 209 669
e 209 678
e 209 714
e 209 722
e 209 726
e 209 728
e 209 756
e 209 761
e 209 771
e 209 782
e 209 790
e 209 791
e 209 805
e 209 806
e 209 834
e 209 843
e 209 870
e 209 878
e 209 906
e 209 913
e 209 925
e 209 944
e 209 950
e 209 962
e 209 965
e 209 967
e 209 999
e 210 261
e 210 264
e 210 275
e 210 294
e 210 295
e 210 332
e 210 335
e 210 338
e 210 361
e 210 362
e 210 369
e 210 392
e 210 394
e 210 433
e 210 436
e 210 437
e 210 447
e 210 452
e 210 458
e 210 461
e 210 475
e 210 489
e 210 513
e 210 514
e 210 519
e 210 522
e 210 541
e 210 542
e 210 570
e 210 573
e 210 576
e 210 589
e 210 591
e 210 601
e 210 618
e 210 622
e 210 628
e 210 641
e 210 657
e 210 659
e 210 665
e 210 690
e 210 691
e 210 713
e 210 722
e 210 724
e 210 734
e 210 747
e 210 749
e 210 752
e 210 768
e 210 782
e 210 790
e 210 816
e 210 826
e 210 832
e 210 851
e 210 860
e 210 868
e 210 871
e 210 892
e 210 908
e 210 916
e 210 920
e 210 925
e 210 930
e 210 933
e 210 938
e 210 948
e 210 953
e 210 954
e 210 959
e 210 962
e 210 963
e 210 986
e 210 993
e 210 998
e 211 255
e 211 282
e 211 295
e 211 298
e 211 300
e 211 306
e 211 312
e 211 318
e 211 324
e 211 325
e 211 348
e 211 385
e 211 425
e 211 436
e 211 454
e 211 461
e 211 477
e 211 482
e 211 484
e 211 486
e 211 495
e 211 502
e 211 505
e 211 521
e 211 536
e 211 538
e 211 543
e 211 547
e 211 549
e 211 550
e 211 560
e 211 565
e 211 567
e 211 572
e 211 576
e 211 581
e 211 605
e 211 607
e 211 608
e 211 611
e 211 634
e 211 650
e 211 651
e 211 659
e 211 664
e 211 669
e 211 670
e 211 673
e 211 675
e 211 682
e 211 715
e 211 718
e 211 735
e 211 752
e 211 771
e 211 775
e 211 778
e 211 779
e 211 783
e 211 794
e 211 801
e 211 805
e 211 828
e 211 831
e 211 836
e 211 842
e 211 868
e 211 874
e 211 877
e 211 894
e 211 911
e 211 913
e 211 917
e 211 918
e 211 919
e 211 935
e 211 946
e 211 970
e 211 976
e 211 981
e 211 985
e 211 997
e 211 1000
e 212 253
e 212 256
e 212 264
e 212 283
e 212 308
e 212 341
e 212 351
e 212 379
e 212 389
e 212 393
e 212 420
e 212 421
e 212 436
e 212 444
e 212 446
e 212 480
e 212 491
e 212 506
e 212 521
e 212 527
e 212 558
e 212 572
e 212 575
e 212 578
e 212 619
e 212 628
e 212 638
e 212 652
e 212 667
e 212 677
e 212 688
e 212 705
e 212 722
e 212 723
e 212 725
e 212 728
e 212 737
e 212 749
e 212 750
e 212 788
e 212 800
e 212 812
e 212 826
e 212 829
e 212 831
e 212 843
e 212 849
e 212 853
e 212 861
e 212 883
e 212 901
e 212 927
e 212 938
e 212 953
e 212 955
e 212 963
e 212 982
e 212 989
e 213 258
e 213 273
e 213 278
e 213 293
e 213 311
e 213 322
e 213 324
e 213 333
e 213 334
e 213 337
e 213 349
e 213 359
e 213 380
e 213 382
e 213 383
e 213 384
e 213 386
e 213 397
e 213 399
e 213 407
e 213 409
e 213 411
e 213 414
e 213 416
e 213 426
e 213 430
e 213 435
e 213 442
e 213 451
e 213 458
e 213 462
e 213 469
e 213 490
e 213 491
e 213 513
e 213 525
e 213 530
e 213 540
e 213 562
e 213 569
e 213 580
e 213 585
e 213 593
e 213 605
e 213 623
e 213 626
e 213 629
e 213 632
e 213 646
e 213 652
e 213 657
e 213 659
e 213 667
e 213 674
e 213 690
e 213 703
e 213 706
e 213 709
e 213 712
e 213 715
e 213 720
e 213 722
e 213 746
e 213 748
e 213 749
e 213 754
e 213 756
e 213 764
e 213 770
e 213 780
e 213 790
e 213 800
e 213 828
e 213 830
e 213 846
e 213 858
e 213 871
e 213 875
e 213 897
e 213 901
e 213 908
e 213 913
e 213 916
e 213 934
e 213 940
e 213 943
e 213 954
e 213 965
e 213 970
e 213 975
e 213 980
e 214 251
e 214 252
e 214 253
e 214 267
e 214 275
e 214 279
e 214 285
e 214 286
e 214 288
e 214 305
e 214 326
e 214 330
e 214 331
e 214 366
e 214 373
e 214 376
e 214 385
e 214 401
e 214 407
e 214 417
e 214 419
e 214 431
e 214 441
e 214 459
e 214 463
e 214 477
e 214 498
e 214 504
e 214 514
e 214 521
e 214 524
e 214 531
e 214 540
e 214 549
e 214 551
e 214 556
e 214 558
e 214 562
e 214 571
e 214 574
e 214 583
e 214 597
e 214 602
e 214 610
e 214 614
e 214 627
e 214 632
e 214 636
e 214 648
e 214 650
e 214 653
e 214 662
e 214 677
e 214 678
e 214 686
e 214 708
e 214 713
e 214 727
e 214 755
e 214 756
e 214 763
e 214 776
e 214 781
e 214 802
e 214 826
e 214 833
e 214 836
e 214 842
e 214 855
e 214 858
e 214 870
e 214 874
e 214 880
e 214 881
e 214 884
e 214 899
e 214 900
e 214 904
e 214 906
e 214 915
e 214 927
e 214 931
e 214 941
e 214 949
e 214 958
e 214 960
e 214 963
e 214 973
e 214 978
e 214 987
e 215 267
e 215 275
e 215 280
e 215 290
e 215 292
e 215 295
e 215 340
e 215 353
e 215 355
e 215 371
e 215 375
e 215 377
e 215 384
e 215 396
e 215 418
e 215 429
e 215 430
e 215 436
e 215 441
e 215 443
e 215 447
e 215 457
e 215 468
e 215 480
e 215 512
e 215 541
e 215 549
e 215 551
e 215 552
e 215 555
e 215 573
e 215 603
e 215 604
e 215 608
e 215 610
e 215 611
e 215 621
e 215 639
e 215 640
e 215 641
e 215 665
e 215 676
e 215 680
e 215 682
e 215 684
e 215 687
e 215 689
e 215 698
e 215 724
e 215 726
e 215 727
e 215 728
e 215 741
e 215 758
e 215 769
e 215 798
e 215 808
e 215 809
e 215 819
e 215 824
e 215 847
e 215 869
e 215 875
e 215 881
e 215 885
e 215 902
e 215 908
e 215 919
e 215 925
e 215 965
e 215 973
e 215 984
e 215 992
e 215 994
e 215 999
e 216 283
e 216 289
e 216 295
e 216 296
e 216 298
e 216 309
e 216 320
e 216 333
e 216 344
e 216 366
e 216 374
e 216 383
e 216 387
e 216 400
e 216 401
e 216 403
e 216 418
e 216 423
e 216 425
e 216 426
e 216 457
e 216 460
e 216 461
e 216 462
e 216 465
e 216 474
e 216 475
e 216 477
e 216 480
e 216 481
e 216 483
e 216 490
e 216 495
e 216 516
e 216 520
e 216 536
e 216 551
e 216 575
e 216 577
e 216 580
e 216 598
e 216 643
e 216 656
e 216 668
e 216 681
e 216 700
e 216 715
e 216 718
e 216 719
e 216 727
e 216 734
e 216 751
e 216 754
e 216 770
e 216 780
e 216 789
e 216 803
e 216 821
e 216 842
e 216 859
e 216 866
e 216 892
e 216 914
e 216 916
e 216 943
e 216 945
e 216 957
e 216 978
e 216 997
e 217 253
e 217 261
e 217 274
e 217 279
e 217 301
e 217 304
e 217 320
e 217 326
e 217 354
e 217 370
e 217 375
e 217 377
e 217 387
e 217 396
e 217 401
e 217 404
e 217 410
e 217 421
e 217 435
e 217 443
e 217 448
e 217 482
e 217 490
e 217 499
e 217 500
e 217 523
e 217 529
e 217 532
e 217 559
e 217 562
e 217 570
e 217 576
e 217 589
e 217 593
e 217 594
e 217 625
e 217 642
e 217 645
e 217 646
e 217 650
e 217 651
e 217 658
e 217 665
e 217 670
e 217 673
e 217 678
e 217 714
e 217 716
e 217 718
e 217 729
e 217 747
e 217 754
e 217 760
e 217 761
e 217 762
e 217 765
e 217 795
e 217 796
e 217 818
e 217 824
e 217 832
e 217 854
e 217 864
e 217 870
e 217 883
e 217 884
e 217 892
e 217 893
e 217 906
e 217 938
e 217 966
e 217 983
e 218 260
e 218 267
e 218 268
e 218 277
e 218 285
e 218 292
e 218 311
e 218 338
e 218 339
e 218 360
e 218 363
e 218 371
e 218 373
e 218 407
e 218 427
e 218 428
e 218 430
e 218 441
e 218 453
e 218 473
e 218 482
e 218 485
e 218 488
e 218 497
e 218 542
e 218 544
e 218 548
e 218 552
e 218 562
e 218 591
e 218 592
e 218 606
e 218 618
e 218 621
e 218 632
e 218 644
e 218 652
e 218 657
e 218 658
e 218 660
e 218 670
e 218 675
e 218 676
e 218 686
e 218 690
e 218 691
e 218 694
e 218 716
e 218 717
e 218 727
e 218 734
e 218 735
e 218 765
e 218 768
e 218 798
e 218 807
e 218 808
e 218 814
e 218 820
e 218 833
e 218 850
e 218 852
e 218 868
e 218 870
e 218 879
e 218 911
e 218 915
e 218 940
e 218 942
e 218 966
e 218 968
e 218 970
e 218 976
e 218 990
e 218 994
e 219 258
e 219 261
e 219 265
e 219 292
e 219 302
e 219 315
e 219 327
e 219 334
e 219 338
e 219 354
e 219 360
e 219 364
e 219 384
e 219 395
e 219 411
e 219 430
e 219 434
e 219 437
e 219 449
e 219 450
e 219 451
e 219 454
e 219 470
e 219 483
e 219 487
e 219 497
e 219 530
e 219 542
e 219 552
e 219 561
e 219 569
e 219 571
e 219 584
e 219 592
e 219 593
e 219 594
e 219 603
e 219 631
e 219 634
e 219 636
e 219 639
e 219 666
e 219 684
e 219 708
e 219 710
e 219 737
e 219 740
e 219 747
e 219 757
e 219 772
e 219 779
e 219 804
e 219 817
e 219 825
e 219 851
e 219 856
e 219 858
e 219 860
e 219 862
e 219 891
e 219 902
e 219 916
e 219 923
e 219 934
e 219 941
e 219 948
e 219 952
e 219 961
e 219 964
e 219 971
e 219 977
e 219 1000
e 220 258
e 220 260
e 220 265
e 220 271
e 220 280
e 220 327
e 220 336
e 220 337
e 220 362
e 220 373
e 220 389
e 220 395
e 220 397
e 220 407
e 220 411
e 220 423
e 220 447
e 220 448
e 220 449
e 220 457
e 220 463
e 220 465
e 220 476
e 220 487
e 220 514
e 220 546
e 220 551
e 220 555
e 220 562
e 220 575
e 220 580
e 220 590
e 220 596
e 220 609
e 220 619
e 220 625
e 220 630
e 220 639
e 220 701
e 220 703
e 220 704
e 220 721
e 220 726
e 220 736
e 220 741
e 220 745
e 220 749
e 220 750
e 220 765
e 220 766
e 220 767
e 220 780
e 220 782
e 220 788
e 220 799
e 220 806
e 220 816
e 220 819
e 220 842
e 220 855
e 220 856
e 220 861
e 220 864
e 220 875
e 220 885
e 220 898
e 220 899
e 220 923
e 220 927
e 220 930
e 220 938
e 220 947
e 220 978
e 220 979
e 220 986
e 220 987
e 220 988
e 220 991
e 220 995
e 221 252
e 221 261
e 221 273
e 221 291
e 221 309
e 221 318
e 221 321
e 221 332
e 221 346
e 221 352
e 221 354
e 221 380
e 221 382
e 221 390
e 221 395
e 221 401
e 221 414
e 221 416
e 221 419
e 221 432
e 221 441
e 221 447
e 221 460
e 221 465
e 221 470
e 221 476
e 221 482
e 221 510
e 221 541
e 221 555
e 221 556
e 221 559
e 221 607
e 221 624
e 221 640
e 221 641
e 221 658
e 221 660
e 221 670
e 221 701
e 221 712
e 221 733
e 221 734
e 221 742
e 221 748
e 221 760
e 221 775
e 221 783
e 221 784
e 221 789
e 221 790
e 221 792
e 221 807
e 221 812
e 221 814
e 221 846
e 221 855
e 221 861
e 221 867
e 221 875
e 221 888
e 221 892
e 221 895
e 221 905
e 221 909
e 221 917
e 221 921
e 221 937
e 221 939
e 221 942
e 221 951
e 221 954
e 221 960
e 221 969
e 221 971
e 221 989
e 221 996
e 221 999
e 222 255
e 222 275
e 222 276
e 222 286
e 222 292
e 222 298
e 222 313
e 222 351
e 222 352
e 222 353
e 222 367
e 222 369
e 222 370
e 222 395
e 222 416
e 222 429
e 222 447
e 222 462
e 222 475
e 222 489
e 222 505
e 222 508
e 222 516
e 222 562
e 222 567
e 222 568
e 222 569
e 222 574
e 222 576
e 222 580
e 222 589
e 222 611
e 222 612
e 222 622
e 222 643
e 222 662
e 222 668
e 222 700
e 222 707
e 222 710
e 222 720
e 222 726
e 222 735
e 222 741
e 222 744
e 222 750
e 222 756
e 222 763
e 222 781
e 222 803
e 222 826
e 222 829
e 222 832
e 222 835
e 222 837
e 222 838
e 222 848
e 222 853
e 222 858
e 222 864
e 222 868
e 222 874
e 222 880
e 222 885
e 222 892
e 222 897
e 222 898
e 222 922
e 222 949
e 222 952
e 222 964
e 222 976
e 222 978
e 222 979
e 222 980
e 222 985
e 222 990
e 223 258
e 223 260
e 223 266
e 223 272
e 223 275
e 223 277
e 223 280
e 223 286
e 223 289
e 223 293
e 223 294
e 223 302
e 223 319
e 223 330
e 223 335
e 223 339
e 223 351
e 223 357
e 223 367
e 223 371
e 223 372
e 223 385
e 223 401
e 223 408
e 223 409
e 223 411
e 223 417
e 223 423
e 223 435
e 223 460
e 223 463
e 223 464
e 223 466
e 223 477
e 223 486
e 223 508
e 223 520
e 223 524
e 223 556
e 223 557
e 223 575
e 223 591
e 223 596
e 223 605
e 223 606
e 223 609
e 223 620
e 223 622
e 223 623
e 223 626
e 223 630
e 223 635
e 223 636
e 223 640
e 223 650
e 223 655
e 223 674
e 223 681
e 223 690
e 223 697
e 223 714
e 223 716
e 223 728
e 223 729
e 223 747
e 223 751
e 223 759
e 223 761
e 223 770
e 223 773
e 223 775
e 223 786
e 223 828
e 223 857
e 223 862
e 223 866
e 223 870
e 223 872
e 223 876
e 223 917
e 223 919
e 223 926
e 223 993
e 223 997
e 223 999
e 224 253
e 224 262
e 224 272
e 224 285
e 224 288
e 224 294
e 224 307
e 224 311
e 224 315
e 224 326
e 224 349
e 224 365
e 224 370
e 224 401
e 224 407
e 224 417
e 224 424
e 224 427
e 224 429
e 224 434
e 224 455
e 224 466
e 224 476
e 224 481
e 224 486
e 224 487
e 224 490
e 224 499
e 224 504
e 224 508
e 224 541
e 224 558
e 224 560
e 224 561
e 224 562
e 224 585
e 224 588
e 224 603
e 224 608
e 224 630
e 224 639
e 224 644
e 224 646
e 224 660
e 224 669
e 224 696
e 224 698
e 224 727
e 224 728
e 224 754
e 224 759
e 224 765
e 224 777
e 224 800
e 224 801
e 224 805
e 224 809
e 224 811
e 224 818
e 224 820
e 224 844
e 224 868
e 224 876
e 224 879
e 224 884
e 224 885
e 224 889
e 224 897
e 224 898
e 224 901
e 224 911
e 224 935
e 225 251
e 225 263
e 225 267
e 225 269
e 225 273
e 225 276
e 225 291
e 225 299
e 225 337
e 225 342
e 225 348
e 225 361
e 225 372
e 225 382
e 225 393
e 225 404
e 225 434
e 225 440
e 225 448
e 225 453
e 225 458
e 225 485
e 225 499
e 225 513
e 225 522
e 225 532
e 225 537
e 225 543
e 225 558
e 225 565
e 225 574
e 225 578
e 225 582
e 225 593
e 225 597
e 225 624
e 225 629
e 225 633
e 225 635
e 225 638
e 225 643
e 225 668
e 225 669
e 225 672
e 225 674
e 225 689
e 225 755
e 225 757
e 225 759
e 225 777
e 225 785
e 225 808
e 225 819
e 225 833
e 225 846
e 225 882
e 225 899
e 225 932
e 225 935
e 225 982
e 225 988
e 225 991
e 226 265
e 226 272
e 226 277
e 226 288
e 226 307
e 226 322
e 226 345
e 226 376
e 226 407
e 226 423
e 226 429
e 226 458
e 226 461
e 226 470
e 226 492
e 226 498
e 226 510
e 226 523
e 226 529
e 226 533
e 226 536
e 226 562
e 226 570
e 226 583
e 226 587
e 226 588
e 226 589
e 226 592
e 226 611
e 226 614
e 226 621
e 226 639
e 226 646
e 226 647
e 226 661
e 226 670
e 226 671
e 226 680
e 226 692
e 226 696
e 226 717
e 226 725
e 226 761
e 226 768
e 226 770
e 226 776
e 226 787
e 226 797
e 226 802
e 226 820
e 226 821
e 226 842
e 226 851
e 226 872
e 226 902
e 226 909
e 226 914
e 226 915
e 226 917
e 226 926
e 226 948
e 226 952
e 226 968
e 226 970
e 227 256
e 227 267
e 227 275
e 227 287
e 227 300
e 227 304
e 227 320
e 227 329
e 227 342
e 227 360
e 227 383
e 227 390
e 227 410
e 227 417
e 227 427
e 227 442
e 227 443
e 227 445
e 227 446
e 227 461
e 227 477
e 227 491
e 227 505
e 227 510
e 227 530
e 227 544
e 227 552
e 227 561
e 227 589
e 227 590
e 227 604
e 227 639
e 227 647
e 227 652
e 227 657
e 227 659
e 227 665
e 227 669
e 227 673
e 227 674
e 227 680
e 227 690
e 227 691
e 227 705
e 227 726
e 227 733
e 227 734
e 227 736
e 227 744
e 227 750
e 227 780
e 227 781
e 227 786
e 227 790
e 227 796
e 227 803
e 227 810
e 227 812
e 227 818
e 227 820
e 227 823
e 227 829
e 227 831
e 227 833
e 227 862
e 227 863
e 227 881
e 227 889
e 227 895
e 227 900
e 227 904
e 227 912
e 227 920
e 227 926
e 227 953
e 227 969
e 227 971
e 227 979
e 227 983
e 227 985
e 227 991
e 227 994
e 227 998
e 228 251
e 228 253
e 228 269
e 228 272
e 228 276
e 228 287
e 228 297
e 228 309
e 228 310
e 228 319
e 228 332
e 228 349
e 228 361
e 228 378
e 228 381
e 228 388
e 228 389
e 228 390
e 228 392
e 228 395
e 228 406
e 228 417
e 228 431
e 228 439
e 228 472
e 228 473
e 228 474
e 228 479
e 228 487
e 228 489
e 228 516
e 228 518
e 228 520
e 228 550
e 228 582
e 228 601
e 228 610
e 228 620
e 228 637
e 228 648
e 228 660
e 228 671
e 228 686
e 228 699
e 228 756
e 228 768
e 228 780
e 228 810
e 228 812
e 228 829
e 228 838
e 228 847
e 228 856
e 228 871
e 228 881
e 228 897
e 228 898
e 228 906
e 228 918
e 228 921
e 228 928
e 228 931
e 228 933
e 228 953
e 228 954
e 228 959
e 228 963
e 228 968
e 229 259
e 229 280
e 229 290
e 229 295
e 229 312
e 229 313
e 229 317
e 229 324
e 229 327
e 229 347
e 229 354
e 229 357
e 229 360
e 229 385
e 229 390
e 229 394
e 229 408
e 229 421
e 229 435
e 229 446
e 229 456
e 229 463
e 229 488
e 229 494
e 229 499
e 229 508
e 229 547
e 229 548
e 229 574
e 229 580
e 229 593
e 229 597
e 229 602
e 229 608
e 229 615
e 229 633
e 229 667
e 229 669
e 229 670
e 229 699
e 229 714
e 229 718
e 229 721
e 229 730
e 229 734
e 229 737
e 229 747
e 229 758
e 229 759
e 229 766
e 229 773
e 229 789
e 229 802
e 229 803
e 229 808
e 229 813
e 229 819
e 229 825
e 229 831
e 229 850
e 229 863
e 229 865
e 229 871
e 229 879
e 229 886
e 229 892
e 229 895
e 229 896
e 229 907
e 229 911
e 229 912
e 229 923
e 229 924
e 229 925
e 229 934
e 229 944
e 229 967
e 229 971
e 229 975
e 229 983
e 229 991
e 230 252
e 230 254
e 230 257
e 230 262
e 230 263
e 230 268
e 230 272
e 230 276
e 230 296
e 230 302
e 230 313
e 230 324
e 230 343
e 230 355
e 230 368
e 230 378
e 230 386
e 230 398
e 230 408
e 230 424
e 230 431
e 230 432
e 230 444
e 230 450
e 230 466
e 230 503
e 230 524
e 230 530
e 230 539
e 230 573
e 230 574
e 230 575
e 230 614
e 230 626
e 230 632
e 230 641
e 230 649
e 230 665
e 230 679
e 230 690
e 230 705
e 230 708
e 230 715
e 230 733
e 230 738
e 230 750
e 230 751
e 230 755
e 230 758
e 230 793
e 230 799
e 230 811
e 230 820
e 230 825
e 230 826
e 230 829
e 230 831
e 230 835
e 230 848
e 230 860
e 230 879
e 230 881
e 230 889
e 230 912
e 230 937
e 230 997
e 231 260
e 231 264
e 231 289
e 231 292
e 231 311
e 231 313
e 231 318
e 231 329
e 231 340
e 231 392
e 231 393
e 231 395
e 231 406
e 231 412
e 231 417
e 231 421
e 231 422
e 231 430
e 231 441
e 231 445
e 231 451
e 231 464
e 231 472
e 231 475
e 231 478
e 231 482
e 231 485
e 231 500
e 231 512
e 231 517
e 231 518
e 231 527
e 231 528
e 231 532
e 231 539
e 231 549
e 231 555
e 231 560
e 231 571
e 231 574
e 231 580
e 231 626
e 231 633
e 231 654
e 231 665
e 231 688
e 231 689
e 231 690
e 231 703
e 231 705
e 231 707
e 231 711
e 231 713
e 231 715
e 231 718
e 231 720
e 231 737
e 231 749
e 231 754
e 231 757
e 231 763
e 231 769
e 231 779
e 231 785
e 231 787
e 231 790
e 231 792
e 231 795
e 231 800
e 231 802
e 231 825
e 231 850
e 231 853
e 231 861
e 231 866
e 231 886
e 231 889
e 231 899
e 231 905
e 231 907
e 231 909
e 231 935
e 231 937
e 231 959
e 231 972
e 231 981
e 231 986
e 231 988
e 232 252
e 232 255
e 232 256
e 232 261
e 232 265
e 232 274
e 232 281
e 232 299
e 232 301
e 232 307
e 232 350
e 232 353
e 232 358
e 232 395
e 232 410
e 232 413
e 232 424
e 232 425
e 232 428
e 232 433
e 232 441
e 232 447
e 232 465
e 232 469
e 232 490
e 232 492
e 232 508
e 232 514
e 232 535
e 232 549
e 232 550
e 232 553
e 232 558
e 232 567
e 232 578
e 232 582
e 232 583
e 232 584
e 232 599
e 232 605
e 232 611
e 232 639
e 232 641
e 232 666
e 232 683
e 232 691
e 232 695
e 232 698
e 232 716
e 232 718
e 232 727
e 232 729
e 232 734
e 232 735
e 232 736
e 232 755
e 232 761
e 232 762
e 232 770
e 232 772
e 232 774
e 232 791
e 232 801
e 232 814
e 232 816
e 232 821
e 232 831
e 232 842
e 232 851
e 232 856
e 232 903
e 232 905
e 232 919
e 232 931
e 232 975
e 232 978
e 232 985
e 232 990
e 233 261
e 233 263
e 233 266
e 233 270
e 233 285
e 233 288
e 233 299
e 233 300
e 233 302
e 233 312
e 233 319
e 233 331
e 233 338
e 233 342
e 233 347
e 233 353
e 233 354
e 233 361
e 233 370
e 233 396
e 233 403
e 233 421
e 233 442
e 233 448
e 233 462
e 233 475
e 233 477
e 233 480
e 233 495
e 233 538
e 233 539
e 233 541
e 233 548
e 233 569
e 233 575
e 233 579
e 233 582
e 233 604
e 233 625
e 233 636
e 233 639
e 233 640
e 233 661
e 233 663
e 233 676
e 233 678
e 233 679
e 233 685
e 233 694
e 233 708
e 233 711
e 233 735
e 233 757
e 233 764
e 233 767
e 233 773
e 233 778
e 233 782
e 233 790
e 233 804
e 233 807
e 233 810
e 233 814
e 233 828
e 233 845
e 233 849
e 233 851
e 233 859
e 233 872
e 233 900
e 233 905
e 233 918
e 233 923
e 233 927
e 233 930
e 233 946
e 233 970
e 233 977
e 233 981
e 233 984
e 234 265
e 234 266
e 234 273
e 234 280
e 234 281
e 234 286
e 234 291
e 234 293
e 234 295
e 234 310
e 234 364
e 234 366
e 234 387
e 234 402
e 234 404
e 234 426
e 234 428
e 234 430
e 234 439
e 234 443
e 234 449
e 234 451
e 234 463
e 234 476
e 234 478
e 234 485
e 234 495
e 234 502
e 234 505
e 234 514
e 234 525
e 234 547
e 234 550
e 234 551
e 234 557
e 234 558
e 234 569
e 234 573
e 234 585
e 234 596
e 234 597
e 234 601
e 234 611
e 234 613
e 234 616
e 234 618
e 234 619
e 234 624
e 234 671
e 234 691
e 234 696
e 234 719
e 234 726
e 234 732
e 234 767
e 234 768
e 234 775
e 234 779
e 234 799
e 234 802
e 234 803
e 234 818
e 234 826
e 234 843
e 234 887
e 234 892
e 234 909
e 234 918
e 234 919
e 234 920
e 234 935
e 234 950
e 234 954
e 234 960
e 234 971
e 234 980
e 234 983
e 234 995
e 235 260
e 235 262
e 235 274
e 235 286
e 235 296
e 235 310
e 235 315
e 235 317
e 235 331
e 235 335
e 235 338
e 235 358
e 235 359
e 235 361
e 235 379
e 235 392
e 235 394
e 235 401
e 235 433
e 235 437
e 235 441
e 235 462
e 235 469
e 235 475
e 235 493
e 235 497
e 235 501
e 235 509
e 235 526
e 235 533
e 235 535
e 235 542
e 235 556
e 235 563
e 235 564
e 235 582
e 235 585
e 235 603
e 235 610
e 235 618
e 235 624
e 235 625
e 235 636
e 235 640
e 235 645
e 235 656
e 235 691
e 235 692
e 235 695
e 235 706
e 235 734
e 235 736
e 235 739
e 235 746
e 235 749
e 235 761
e 235 770
e 235 782
e 235 790
e 235 810
e 235 813
e 235 832
e 235 834
e 235 855
e 235 883
e 235 886
e 235 892
e 235 903
e 235 938
e 235 949
e 235 960
e 235 965
e 235 969
e 236 257
e 236 269
e 236 285
e 236 296
e 236 313
e 236 358
e 236 367
e 236 375
e 236 377
e 236 379
e 236 382
e 236 385
e 236 389
e 236 401
e 236 410
e 236 414
e 236 416
e 236 427
e 236 438
e 236 446
e 236 467
e 236 470
e 236 478
e 236 484
e 236 490
e 236 495
e 236 496
e 236 510
e 236 512
e 236 523
e 236 526
e 236 528
e 236 561
e 236 569
e 236 593
e 236 650
e 236 652
e 236 691
e 236 711
e 236 730
e 236 735
e 236 741
e 236 746
e 236 754
e 236 789
e 236 802
e 236 809
e 236 814
e 236 819
e 236 866
e 236 881
e 236 889
e 236 893
e 236 894
e 236 927
e 236 931
e 236 937
e 236 938
e 236 969
e 236 972
e 236 973
e 236 976
e 236 995
e 236 996
e 237 253
e 237 263
e 237 268
e 237 280
e 237 291
e 237 299
e 237 302
e 237 312
e 237 314
e 237 320
e 237 321
e 237 325
e 237 341
e 237 343
e 237 347
e 237 358
e 237 362
e 237 370
e 237 371
e 237 378
e 237 387
e 237 395
e 237 402
e 237 438
e 237 457
e 237 460
e 237 489
e 237 491
e 237 495
e 237 498
e 237 502
e 237 513
e 237 514
e 237 526
e 237 531
e 237 538
e 237 567
e 237 584
e 237 593
e 237 606
e 237 613
e 237 621
e 237 651
e 237 652
e 237 684
e 237 686
e 237 695
e 237 700
e 237 720
e 237 723
e 237 726
e 237 751
e 237 760
e 237 763
e 237 772
e 237 785
e 237 798
e 237 810
e 237 832
e 237 848
e 237 864
e 237 871
e 237 879
e 237 885
e 237 890
e 237 916
e 237 929
e 237 937
e 237 944
e 237 948
e 237 951
e 237 956
e 237 962
e 237 966
e 237 976
e 237 982
e 237 984
e 237 989
e 238 256
e 238 260
e 238 261
e 238 264
e 238 302
e 238 303
e 238 307
e 238 316
e 238 318
e 238 345
e 238 349
e 238 370
e 238 411
e 238 414
e 238 422
e 238 434
e 238 440
e 238 444
e 238 462
e 238 463
e 238 477
e 238 485
e 238 487
e 238 516
e 238 518
e 238 533
e 238 536
e 238 559
e 238 569
e 238 582
e 238 583
e 238 596
e 238 604
e 238 613
e 238 647
e 238 652
e 238 655
e 238 660
e 238 663
e 238 670
e 238 683
e 238 693
e 238 696
e 238 704
e 238 711
e 238 713
e 238 721
e 238 731
e 238 733
e 238 734
e 238 736
e 238 749
e 238 752
e 238 755
e 238 761
e 238 779
e 238 790
e 238 826
e 238 835
e 238 836
e 238 846
e 238 853
e 238 861
e 238 891
e 238 909
e 238 910
e 238 923
e 238 930
e 238 946
e 238 954
e 238 983
e 238 993
e 239 265
e 239 271
e 239 275
e 239 278
e 239 279
e 239 281
e 239 293
e 239 298
e 239 320
e 239 340
e 239 344
e 239 345
e 239 399
e 239 404
e 239 407
e 239 424
e 239 428
e 239 430
e 239 456
e 239 464
e 239 476
e 239 480
e 239 481
e 239 513
e 239 514
e 239 539
e 239 543
e 239 544
e 239 553
e 239 571
e 239 573
e 239 578
e 239 579
e 239 589
e 239 593
e 239 605
e 239 616
e 239 625
e 239 631
e 239 641
e 239 652
e 239 653
e 239 657
e 239 661
e 239 669
e 239 679
e 239 681
e 239 697
e 239 701
e 239 713
e 239 723
e 239 724
e 239 752
e 239 758
e 239 759
e 239 774
e 239 781
e 239 816
e 239 823
e 239 831
e 239 840
e 239 841
e 239 842
e 239 850
e 239 857
e 239 858
e 239 864
e 239 868
e 239 874
e 239 884
e 239 891
e 239 903
e 239 905
e 239 909
e 239 923
e 239 925
e 239 947
e 239 950
e 239 965
e 239 979
e 240 255
e 240 277
e 240 302
e 240 318
e 240 335
e 240 352
e 240 364
e 240 367
e 240 370
e 240 396
e 240 408
e 240 416
e 240 418
e 240 431
e 240 444
e 240 445
e 240 447
e 240 452
e 240 470
e 240 471
e 240 472
e 240 473
e 240 477
e 240 488
e 240 493
e 240 495
e 240 515
e 240 521
e 240 522
e 240 526
e 240 532
e 240 533
e 240 539
e 240 543
e 240 553
e 240 554
e 240 555
e 240 557
e 240 564
e 240 567
e 240 584
e 240 595
e 240 603
e 240 613
e 240 615
e 240 626
e 240 629
e 240 634
e 240 641
e 240 657
e 240 669
e 240 693
e 240 697
e 240 699
e 240 703
e 240 715
e 240 722
e 240 730
e 240 739
e 240 742
e 240 747
e 240 749
e 240 751
e 240 767
e 240 771
e 240 782
e 240 793
e 240 802
e 240 803
e 240 806
e 240 814
e 240 829
e 240 832
e 240 837
e 240 877
e 240 887
e 240 888
e 240 918
e 240 919
e 240 923
e 240 924
e 240 935
e 240 936
e 240 938
e 240 951
e 240 953
e 240 956
e 240 963
e 240 967
e 240 971
e 240 992
e 240 993
e 241 264
e 241 271
e 241 273
e 241 291
e 241 305
e 241 312
e 241 313
e 241 324
e 241 336
e 241 339
e 241 343
e 241 349
e 241 351
e 241 360
e 241 371
e 241 373
e 241 375
e 241 378
e 241 383
e 241 387
e 241 397
e 241 398
e 241 402
e 241 405
e 241 446
e 241 449
e 241 455
e 241 469
e 241 472
e 241 483
e 241 505
e 241 509
e 241 518
e 241 529
e 241 531
e 241 556
e 241 558
e 241 567
e 241 575
e 241 576
e 241 587
e 241 591
e 241 593
e 241 613
e 241 621
e 241 633
e 241 636
e 241 660
e 241 672
e 241 675
e 241 680
e 241 703
e 241 713
e 241 714
e 241 725
e 241 731
e 241 758
e 241 774
e 241 776
e 241 794
e 241 798
e 241 805
e 241 814
e 241 820
e 241 838
e 241 854
e 241 867
e 241 868
e 241 870
e 241 884
e 241 886
e 241 889
e 241 895
e 241 899
e 241 903
e 241 917
e 241 929
e 241 935
e 241 952
e 241 953
e 241 955
e 241 960
e 241 963
e 241 999
e 242 255
e 242 265
e 242 275
e 242 305
e 242 306
e 242 346
e 242 382
e 242 391
e 242 395
e 242 412
e 242 431
e 242 440
e 242 451
e 242 499
e 242 501
e 242 506
e 242 507
e 242 531
e 242 534
e 242 553
e 242 562
e 242 563
e 242 565
e 242 595
e 242 604
e 242 611
e 242 617
e 242 623
e 242 640
e 242 646
e 242 648
e 242 656
e 242 661
e 242 676
e 242 698
e 242 699
e 242 711
e 242 742
e 242 745
e 242 752
e 242 753
e 242 767
e 242 772
e 242 774
e 242 803
e 242 817
e 242 821
e 242 822
e 242 849
e 242 857
e 242 862
e 242 869
e 242 876
e 242 888
e 242 894
e 242 900
e 242 917
e 242 919
e 242 938
e 242 961
e 242 965
e 242 966
e 242 969
e 242 979
e 242 992
e 242 994
e 243 263
e 243 275
e 243 282
e 243 285
e 243 291
e 243 295
e 243 298
e 243 299
e 243 323
e 243 327
e 243 329
e 243 340
e 243 365
e 243 370
e 243 374
e 243 379
e 243 395
e 243 425
e 243 430
e 243 435
e 243 442
e 243 493
e 243 495
e 243 497
e 243 499
e 243 505
e 243 508
e 243 512
e 243 514
e 243 515
e 243 527
e 243 528
e 243 538
e 243 545
e 243 561
e 243 562
e 243 563
e 243 576
e 243 591
e 243 601
e 243 602
e 243 607
e 243 627
e 243 636
e 243 652
e 243 659
e 243 673
e 243 676
e 243 684
e 243 686
e 243 690
e 243 698
e 243 699
e 243 718
e 243 724
e 243 726
e 243 736
e 243 764
e 243 767
e 243 777
e 243 792
e 243 802
e 243 833
e 243 837
e 243 849
e 243 850
e 243 863
e 243 868
e 243 877
e 243 901
e 243 919
e 243 922
e 243 934
e 243 937
e 243 939
e 243 941
e 243 943
e 243 949
e 243 977
e 243 987
e 243 990
e 244 290
e 244 292
e 244 293
e 244 295
e 244 301
e 244 302
e 244 315
e 244 318
e 244 320
e 244 333
e 244 382
e 244 399
e 244 416
e 244 418
e 244 421
e 244 440
e 244 447
e 244 453
e 244 455
e 244 457
e 244 459
e 244 463
e 244 470
e 244 484
e 244 492
e 244 520
e 244 529
e 244 535
e 244 541
e 244 554
e 244 558
e 244 576
e 244 590
e 244 597
e 244 608
e 244 636
e 244 648
e 244 651
e 244 659
e 244 666
e 244 671
e 244 677
e 244 685
e 244 702
e 244 712
e 244 722
e 244 727
e 244 729
e 244 747
e 244 748
e 244 750
e 244 759
e 244 764
e 244 771
e 244 777
e 244 782
e 244 801
e 244 824
e 244 830
e 244 831
e 244 891
e 244 904
e 244 909
e 244 914
e 244 929
e 244 947
e 244 954
e 244 958
e 244 974
e 244 975
e 244 981
e 244 989
e 245 254
e 245 268
e 245 270
e 245 320
e 245 325
e 245 343
e 245 369
e 245 374
e 245 376
e 245 382
e 245 389
e 245 390
e 245 394
e 245 395
e 245 407
e 245 420
e 245 427
e 245 433
e 245 465
e 245 466
e 245 470
e 245 474
e 245 480
e 245 482
e 245 485
e 245 493
e 245 502
e 245 505
e 245 510
e 245 516
e 245 522
e 245 532
e 245 556
e 245 562
e 245 605
e 245 606
e 245 615
e 245 643
e 245 650
e 245 678
e 245 683
e 245 684
e 245 686
e 245 694
e 245 695
e 245 696
e 245 698
e 245 716
e 245 720
e 245 729
e 245 744
e 245 746
e 245 747
e 245 752
e 245 757
e 245 764
e 245 771
e 245 794
e 245 813
e 245 829
e 245 880
e 245 893
e 245 910
e 245 913
e 245 917
e 245 919
e 245 920
e 245 930
e 245 953
e 245 958
e 245 968
e 245 984
e 245 1000
e 246 253
e 246 256
e 246 258
e 246 266
e 246 271
e 246 279
e 246 300
e 246 303
e 246 311
e 246 327
e 246 333
e 246 347
e 246 351
e 246 363
e 246 364
e 246 366
e 246 402
e 246 416
e 246 417
e 246 418
e 246 424
e 246 428
e 246 431
e 246 454
e 246 477
e 246 482
e 246 488
e 246 529
e 246 547
e 246 550
e 246 565
e 246 571
e 246 574
e 246 586
e 246 595
e 246 599
e 246 627
e 246 628
e 246 648
e 246 652
e 246 653
e 246 654
e 246 656
e 246 657
e 246 667
e 246 671
e 246 676
e 246 682
e 246 699
e 246 706
e 246 715
e 246 720
e 246 727
e 246 748
e 246 753
e 246 783
e 246 784
e 246 797
e 246 804
e 246 815
e 246 817
e 246 822
e 246 842
e 246 895
e 246 927
e 246 938
e 246 943
e 246 944
e 246 965
e 246 993
e 246 994
e 247 268
e 247 277
e 247 281
e 247 285
e 247 286
e 247 293
e 247 311
e 247 314
e 247 319
e 247 331
e 247 335
e 247 338
e 247 341
e 247 358
e 247 364
e 247 371
e 247 375
e 247 377
e 247 391
e 247 404
e 247 423
e 247 448
e 247 451
e 247 452
e 247 479
e 247 506
e 247 507
e 247 545
e 247 550
e 247 553
e 247 555
e 247 593
e 247 619
e 247 652
e 247 654
e 247 655
e 247 688
e 247 694
e 247 700
e 247 711
e 247 714
e 247 715
e 247 721
e 247 724
e 247 745
e 247 751
e 247 761
e 247 762
e 247 770
e 247 775
e 247 791
e 247 797
e 247 805
e 247 808
e 247 821
e 247 827
e 247 843
e 247 844
e 247 848
e 247 850
e 247 875
e 247 881
e 247 883
e 247 885
e 247 886
e 247 887
e 247 890
e 247 894
e 247 896
e 247 901
e 247 905
e 247 924
e 247 932
e 247 939
e 247 941
e 247 952
e 247 960
e 247 987
e 248 259
e 248 271
e 248 272
e 248 275
e 248 278
e 248 279
e 248 318
e 248 349
e 248 351
e 248 355
e 248 357
e 248 358
e 248 361
e 248 368
e 248 384
e 248 386
e 248 426
e 248 428
e 248 440
e 248 444
e 248 453
e 248 476
e 248 478
e 248 479
e 248 485
e 248 504
e 248 537
e 248 562
e 248 574
e 248 578
e 248 582
e 248 583
e 248 590
e 248 591
e 248 600
e 248 602
e 248 606
e 248 607
e 248 639
e 248 640
e 248 657
e 248 671
e 248 689
e 248 702
e 248 705
e 248 712
e 248 715
e 248 726
e 248 731
e 248 747
e 248 751
e 248 759
e 248 782
e 248 789
e 248 797
e 248 816
e 248 825
e 248 827
e 248 832
e 248 836
e 248 843
e 248 860
e 248 868
e 248 903
e 248 909
e 248 910
e 248 911
e 248 915
e 248 934
e 248 946
e 248 969
e 248 975
e 248 984
e 248 995
e 249 267
e 249 290
e 249 325
e 249 353
e 249 355
e 249 380
e 249 392
e 249 398
e 249 399
e 249 400
e 249 402
e 249 417
e 249 421
e 249 422
e 249 454
e 249 455
e 249 464
e 249 474
e 249 484
e 249 487
e 249 494
e 249 500
e 249 503
e 249 524
e 249 528
e 249 530
e 249 536
e 249 539
e 249 553
e 249 595
e 249 603
e 249 609
e 249 625
e 249 642
e 249 646
e 249 669
e 249 678
e 249 701
e 249 703
e 249 712
e 249 716
e 249 749
e 249 752
e 249 753
e 249 757
e 249 784
e 249 785
e 249 789
e 249 795
e 249 800
e 249 803
e 249 805
e 249 816
e 249 817
e 249 820
e 249 833
e 249 848
e 249 855
e 249 860
e 249 872
e 249 880
e 249 887
e 249 895
e 249 897
e 249 898
e 249 905
e 249 908
e 249 912
e 249 923
e 249 951
e 249 967
e 249 968
e 249 970
e 249 980
e 249 988
e 249 997
e 250 288
e 250 294
e 250 298
e 250 330
e 250 350
e 250 368
e 250 376
e 250 380
e 250 382
e 250 383
e 250 392
e 250 401
e 250 403
e 250 412
e 250 415
e 250 425
e 250 429
e 250 430
e 250 437
e 250 439
e 250 450
e 250 461
e 250 463
e 250 468
e 250 470
e 250 488
e 250 491
e 250 493
e 250 500
e 250 511
e 250 523
e 250 556
e 250 567
e 250 568
e 250 582
e 250 595
e 250 612
e 250 627
e 250 633
e 250 638
e 250 641
e 250 653
e 250 662
e 250 682
e 250 695
e 250 700
e 250 722
e 250 742
e 250 746
e 250 748
e 250 750
e 250 752
e 250 763
e 250 769
e 250 781
e 250 811
e 250 817
e 250 821
e 250 841
e 250 847
e 250 853
e 250 855
e 250 859
e 250 863
e 250 866
e 250 868
e 250 873
e 250 892
e 250 912
e 250 923
e 250 941
e 250 944
e 250 949
e 250 952
e 250 999
