p edge 1000 5697
e 1 269
e 1 349
e 1 372
e 1 431
e 1 442
e 1 445
e 1 449
e 1 470
e 1 484
e 1 491
e 1 496
e 1 568
e 1 629
e 1 631
e 1 722
e 1 734
e 1 760
e 1 796
e 1 877
e 1 894
e 1 919
e 1 995
e 2 269
e 2 352
e 2 370
e 2 407
e 2 436
e 2 468
e 2 523
e 2 536
e 2 609
e 2 621
e 2 626
e 2 636
e 2 686
e 2 706
e 2 731
e 2 754
e 2 781
e 2 825
e 2 827
e 2 857
e 2 891
e 2 904
e 2 920
e 3 257
e 3 258
e 3 260
e 3 317
e 3 383
e 3 393
e 3 429
e 3 433
e 3 534
e 3 541
e 3 553
e 3 704
e 3 716
e 3 746
e 3 836
e 3 868
e 3 913
e 3 925
e 3 951
e 4 253
e 4 289
e 4 345
e 4 351
e 4 352
e 4 355
e 4 368
e 4 369
e 4 439
e 4 468
e 4 539
e 4 542
e 4 561
e 4 578
e 4 585
e 4 592
e 4 597
e 4 598
e 4 670
e 4 714
e 4 721
e 4 756
e 4 789
e 4 807
e 4 856
e 4 862
e 4 867
e 4 881
e 4 920
e 4 926
e 5 270
e 5 292
e 5 309
e 5 334
e 5 377
e 5 391
e 5 416
e 5 456
e 5 493
e 5 548
e 5 579
e 5 601
e 5 629
e 5 660
e 5 661
e 5 674
e 5 685
e 5 720
e 5 747
e 5 781
e 5 838
e 5 859
e 5 866
e 5 888
e 5 890
e 5 894
e 5 897
e 5 938
e 5 981
e 6 266
e 6 283
e 6 345
e 6 350
e 6 368
e 6 449
e 6 476
e 6 491
e 6 535
e 6 548
e 6 602
e 6 654
e 6 732
e 6 756
e 6 871
e 6 885
e 6 912
e 6 914
e 6 923
e 6 930
e 6 935
e 6 983
e 7 273
e 7 310
e 7 374
e 7 379
e 7 431
e 7 447
e 7 501
e 7 517
e 7 597
e 7 618
e 7 644
e 7 671
e 7 675
e 7 748
e 7 773
e 7 826
e 7 829
e 7 835
e 7 909
e 7 941
e 8 310
e 8 319
e 8 368
e 8 392
e 8 425
e 8 445
e 8 461
e 8 492
e 8 501
e 8 596
e 8 637
e 8 665
e 8 675
e 8 730
e 8 735
e 8 770
e 8 818
e 8 908
e 8 981
e 9 261
e 9 306
e 9 319
e 9 321
e 9 411
e 9 449
e 9 450
e 9 465
e 9 504
e 9 506
e 9 511
e 9 661
e 9 683
e 9 703
e 9 752
e 9 757
e 9 830
e 9 841
e 9 866
e 9 895
e 9 958
e 9 966
e 9 987
e 9 989
e 10 253
e 10 298
e 10 341
e 10 352
e 10 356
e 10 357
e 10 383
e 10 400
e 10 410
e 10 425
e 10 432
e 10 528
e 10 542
e 10 544
e 10 579
e 10 582
e 10 652
e 10 660
e 10 679
e 10 719
e 10 751
e 10 756
e 10 774
e 10 777
e 10 798
e 10 809
e 10 825
e 10 892
e 10 906
e 10 990
e 11 307
e 11 349
e 11 448
e 11 474
e 11 488
e 11 515
e 11 529
e 11 538
e 11 609
e 11 723
e 11 754
e 11 769
e 11 775
e 11 792
e 11 801
e 11 832
e 11 842
e 11 885
e 11 910
e 11 988
e 12 259
e 12 315
e 12 336
e 12 401
e 12 410
e 12 425
e 12 434
e 12 464
e 12 545
e 12 560
e 12 607
e 12 611
e 12 657
e 12 673
e 12 683
e 12 716
e 12 745
e 12 767
e 12 824
e 12 850
e 12 903
e 12 910
e 12 919
e 12 922
e 12 943
e 12 944
e 12 967
e 13 260
e 13 265
e 13 316
e 13 321
e 13 339
e 13 415
e 13 417
e 13 439
e 13 471
e 13 476
e 13 533
e 13 534
e 13 542
e 13 606
e 13 652
e 13 762
e 13 802
e 13 830
e 13 834
e 13 848
e 13 866
e 13 941
e 13 965
e 13 984
e 13 987
e 13 1000
e 14 319
e 14 353
e 14 354
e 14 423
e 14 524
e 14 545
e 14 550
e 14 641
e 14 711
e 14 732
e 14 789
e 14 805
e 14 832
e 14 918
e 14 937
e 14 940
e 14 967
e 15 260
e 15 267
e 15 275
e 15 297
e 15 328
e 15 341
e 15 479
e 15 481
e 15 525
e 15 534
e 15 596
e 15 617
e 15 647
e 15 704
e 15 739
e 15 749
e 15 797
e 15 835
e 15 873
e 15 877
e 15 884
e 15 974
e 15 995
e 16 282
e 16 323
e 16 338
e 16 398
e 16 450
e 16 464
e 16 499
e 16 533
e 16 572
e 16 580
e 16 595
e 16 641
e 16 727
e 16 772
e 16 890
e 16 892
e 16 922
e 16 929
e 16 987
e 17 264
e 17 301
e 17 343
e 17 365
e 17 416
e 17 424
e 17 431
e 17 442
e 17 447
e 17 511
e 17 564
e 17 576
e 17 581
e 17 587
e 17 596
e 17 687
e 17 691
e 17 698
e 17 709
e 17 743
e 17 758
e 17 816
e 17 828
e 17 831
e 17 857
e 17 870
e 17 913
e 17 995
e 18 285
e 18 325
e 18 366
e 18 431
e 18 453
e 18 474
e 18 483
e 18 500
e 18 532
e 18 548
e 18 557
e 18 601
e 18 626
e 18 651
e 18 665
e 18 678
e 18 685
e 18 698
e 18 727
e 18 830
e 18 848
e 18 858
e 18 866
e 18 871
e 18 919
e 18 929
e 18 992
e 19 290
e 19 308
e 19 445
e 19 482
e 19 504
e 19 597
e 19 630
e 19 645
e 19 647
e 19 663
e 19 695
e 19 709
e 19 747
e 19 776
e 19 782
e 19 785
e 19 853
e 19 859
e 19 896
e 19 906
e 19 946
e 19 965
e 19 967
e 19 991
e 20 259
e 20 283
e 20 364
e 20 372
e 20 392
e 20 417
e 20 484
e 20 518
e 20 528
e 20 541
e 20 645
e 20 647
e 20 655
e 20 656
e 20 729
e 20 787
e 20 813
e 20 875
e 20 898
e 20 905
e 20 907
e 20 962
e 20 968
e 21 285
e 21 317
e 21 334
e 21 407
e 21 428
e 21 433
e 21 435
e 21 569
e 21 591
e 21 627
e 21 755
e 21 797
e 21 801
e 21 816
e 21 838
e 21 888
e 21 893
e 21 920
e 21 992
e 21 994
e 21 995
e 22 271
e 22 292
e 22 314
e 22 356
e 22 468
e 22 500
e 22 621
e 22 623
e 22 643
e 22 663
e 22 682
e 22 685
e 22 712
e 22 734
e 22 756
e 22 826
e 22 867
e 22 884
e 22 896
e 22 898
e 22 978
e 23 287
e 23 296
e 23 336
e 23 346
e 23 351
e 23 396
e 23 405
e 23 409
e 23 411
e 23 475
e 23 483
e 23 489
e 23 516
e 23 541
e 23 574
e 23 584
e 23 590
e 23 591
e 23 593
e 23 707
e 23 719
e 23 728
e 23 795
e 23 830
e 23 858
e 23 861
e 23 866
e 23 899
e 23 913
e 23 929
e 23 955
e 23 984
e 23 992
e 24 259
e 24 327
e 24 444
e 24 487
e 24 513
e 24 524
e 24 528
e 24 618
e 24 621
e 24 638
e 24 665
e 24 708
e 24 743
e 24 748
e 24 794
e 24 816
e 24 898
e 24 900
e 24 907
e 24 935
e 24 968
e 24 973
e 25 264
e 25 329
e 25 400
e 25 403
e 25 431
e 25 486
e 25 515
e 25 633
e 25 639
e 25 661
e 25 668
e 25 695
e 25 752
e 25 755
e 25 774
e 25 821
e 25 863
e 25 899
e 25 998
e 26 289
e 26 291
e 26 320
e 26 405
e 26 443
e 26 513
e 26 577
e 26 585
e 26 608
e 26 730
e 26 744
e 26 770
e 26 793
e 26 841
e 26 869
e 26 889
e 26 926
e 27 486
e 27 518
e 27 685
e 27 711
e 27 723
e 27 782
e 27 829
e 27 843
e 27 873
e 27 925
e 27 997
e 28 266
e 28 286
e 28 302
e 28 314
e 28 334
e 28 343
e 28 344
e 28 379
e 28 393
e 28 402
e 28 421
e 28 474
e 28 492
e 28 503
e 28 525
e 28 527
e 28 538
e 28 565
e 28 593
e 28 635
e 28 646
e 28 665
e 28 686
e 28 702
e 28 718
e 28 807
e 28 875
e 28 913
e 28 925
e 28 934
e 28 947
e 28 949
e 28 951
e 28 992
e 29 272
e 29 284
e 29 301
e 29 342
e 29 511
e 29 522
e 29 543
e 29 657
e 29 674
e 29 686
e 29 726
e 29 840
e 29 887
e 29 999
e 30 298
e 30 370
e 30 401
e 30 413
e 30 423
e 30 441
e 30 460
e 30 478
e 30 598
e 30 630
e 30 641
e 30 665
e 30 707
e 30 718
e 30 722
e 30 859
e 30 863
e 30 866
e 30 883
e 30 884
e 30 898
e 30 910
e 30 927
e 30 968
e 30 988
e 31 268
e 31 270
e 31 286
e 31 348
e 31 374
e 31 442
e 31 502
e 31 516
e 31 611
e 31 628
e 31 660
e 31 662
e 31 708
e 31 730
e 31 738
e 31 765
e 31 813
e 31 849
e 31 976
e 32 289
e 32 293
e 32 347
e 32 408
e 32 524
e 32 544
e 32 552
e 32 644
e 32 661
e 32 689
e 32 715
e 32 729
e 32 776
e 32 805
e 32 812
e 32 859
e 32 862
e 32 885
e 32 910
e 32 922
e 32 925
e 32 958
e 32 975
e 32 976
e 32 984
e 33 271
e 33 314
e 33 317
e 33 346
e 33 349
e 33 365
e 33 380
e 33 400
e 33 421
e 33 437
e 33 532
e 33 567
e 33 587
e 33 602
e 33 631
e 33 634
e 33 671
e 33 677
e 33 694
e 33 736
e 33 737
e 33 776
e 33 871
e 33 874
e 34 267
e 34 305
e 34 330
e 34 346
e 34 366
e 34 471
e 34 480
e 34 495
e 34 512
e 34 538
e 34 575
e 34 592
e 34 623
e 34 669
e 34 706
e 34 739
e 34 750
e 34 755
e 34 757
e 34 818
e 34 819
e 34 848
e 34 858
e 34 895
e 34 905
e 34 974
e 34 990
e 35 279
e 35 292
e 35 326
e 35 367
e 35 457
e 35 459
e 35 463
e 35 519
e 35 521
e 35 566
e 35 577
e 35 589
e 35 597
e 35 602
e 35 611
e 35 622
e 35 629
e 35 632
e 35 698
e 35 740
e 35 795
e 35 891
e 35 938
e 36 259
e 36 292
e 36 320
e 36 338
e 36 377
e 36 462
e 36 533
e 36 580
e 36 624
e 36 635
e 36 657
e 36 698
e 36 742
e 36 745
e 36 791
e 36 847
e 36 914
e 36 915
e 36 932
e 37 269
e 37 338
e 37 356
e 37 384
e 37 409
e 37 417
e 37 512
e 37 592
e 37 632
e 37 726
e 37 735
e 37 799
e 37 824
e 37 829
e 37 894
e 37 897
e 38 287
e 38 288
e 38 371
e 38 378
e 38 395
e 38 436
e 38 444
e 38 450
e 38 468
e 38 480
e 38 545
e 38 697
e 38 710
e 38 733
e 38 750
e 38 854
e 38 876
e 38 879
e 38 880
e 38 895
e 38 958
e 38 959
e 38 989
e 38 999
e 39 298
e 39 357
e 39 366
e 39 399
e 39 434
e 39 460
e 39 463
e 39 492
e 39 522
e 39 533
e 39 577
e 39 593
e 39 608
e 39 633
e 39 647
e 39 658
e 39 684
e 39 709
e 39 735
e 39 790
e 39 803
e 39 842
e 39 892
e 39 909
e 39 918
e 39 954
e 39 961
e 39 979
e 39 1000
e 40 252
e 40 303
e 40 361
e 40 375
e 40 402
e 40 405
e 40 445
e 40 449
e 40 450
e 40 457
e 40 467
e 40 491
e 40 573
e 40 617
e 40 679
e 40 691
e 40 693
e 40 722
e 40 737
e 40 797
e 40 849
e 40 879
e 40 889
e 40 891
e 40 914
e 40 951
e 40 954
e 40 986
e 41 254
e 41 282
e 41 293
e 41 295
e 41 307
e 41 311
e 41 359
e 41 484
e 41 485
e 41 510
e 41 590
e 41 647
e 41 687
e 41 691
e 41 721
e 41 782
e 41 799
e 41 836
e 41 837
e 41 845
e 41 895
e 41 928
e 42 296
e 42 341
e 42 357
e 42 382
e 42 387
e 42 438
e 42 441
e 42 542
e 42 588
e 42 615
e 42 620
e 42 624
e 42 651
e 42 684
e 42 755
e 42 821
e 42 825
e 42 847
e 42 865
e 42 899
e 42 930
e 42 935
e 42 955
e 43 311
e 43 321
e 43 357
e 43 368
e 43 395
e 43 402
e 43 473
e 43 477
e 43 583
e 43 590
e 43 640
e 43 653
e 43 718
e 43 760
e 43 783
e 43 819
e 43 832
e 43 846
e 43 882
e 43 946
e 43 965
e 44 302
e 44 321
e 44 337
e 44 345
e 44 408
e 44 413
e 44 420
e 44 485
e 44 518
e 44 556
e 44 559
e 44 577
e 44 625
e 44 684
e 44 708
e 44 743
e 44 755
e 44 765
e 44 845
e 44 942
e 44 951
e 44 986
e 45 347
e 45 377
e 45 425
e 45 601
e 45 620
e 45 664
e 45 667
e 45 676
e 45 682
e 45 702
e 45 733
e 45 751
e 45 756
e 45 770
e 45 842
e 45 853
e 45 906
e 45 950
e 45 955
e 45 972
e 45 1000
e 46 299
e 46 303
e 46 328
e 46 368
e 46 374
e 46 387
e 46 462
e 46 489
e 46 490
e 46 557
e 46 648
e 46 654
e 46 708
e 46 725
e 46 753
e 46 760
e 46 762
e 46 767
e 46 776
e 46 778
e 46 804
e 46 816
e 46 859
e 46 907
e 46 945
e 46 962
e 46 988
e 46 995
e 47 263
e 47 283
e 47 432
e 47 438
e 47 465
e 47 477
e 47 524
e 47 529
e 47 553
e 47 556
e 47 573
e 47 595
e 47 712
e 47 715
e 47 724
e 47 747
e 47 767
e 47 801
e 47 809
e 47 952
e 47 960
e 48 315
e 48 341
e 48 384
e 48 435
e 48 467
e 48 514
e 48 547
e 48 597
e 48 640
e 48 705
e 48 773
e 48 793
e 48 811
e 48 830
e 48 861
e 48 889
e 48 930
e 48 973
e 48 986
e 49 281
e 49 355
e 49 406
e 49 422
e 49 431
e 49 454
e 49 531
e 49 588
e 49 590
e 49 608
e 49 616
e 49 652
e 49 694
e 49 699
e 49 737
e 49 753
e 49 790
e 49 807
e 49 854
e 49 918
e 49 934
e 50 276
e 50 331
e 50 337
e 50 338
e 50 478
e 50 541
e 50 710
e 50 712
e 50 725
e 50 735
e 50 783
e 50 878
e 50 904
e 50 962
e 50 977
e 51 253
e 51 257
e 51 295
e 51 347
e 51 427
e 51 449
e 51 451
e 51 497
e 51 518
e 51 524
e 51 531
e 51 563
e 51 606
e 51 676
e 51 684
e 51 801
e 51 807
e 51 838
e 51 946
e 51 957
e 51 998
e 52 280
e 52 309
e 52 312
e 52 410
e 52 420
e 52 591
e 52 608
e 52 652
e 52 693
e 52 709
e 52 778
e 52 821
e 52 825
e 52 828
e 52 839
e 52 847
e 52 869
e 52 942
e 52 945
e 52 965
e 52 976
e 52 999
e 53 258
e 53 322
e 53 334
e 53 365
e 53 387
e 53 402
e 53 408
e 53 461
e 53 494
e 53 536
e 53 582
e 53 587
e 53 611
e 53 637
e 53 801
e 53 843
e 53 897
e 53 917
e 53 918
e 53 924
e 53 931
e 53 984
e 54 266
e 54 364
e 54 482
e 54 496
e 54 503
e 54 550
e 54 554
e 54 569
e 54 573
e 54 634
e 54 661
e 54 689
e 54 717
e 54 741
e 54 756
e 54 759
e 54 765
e 54 808
e 54 859
e 54 890
e 54 935
e 55 253
e 55 259
e 55 341
e 55 366
e 55 388
e 55 398
e 55 415
e 55 470
e 55 482
e 55 595
e 55 641
e 55 674
e 55 692
e 55 717
e 55 811
e 55 829
e 55 863
e 55 909
e 55 926
e 55 929
e 55 935
e 55 958
e 55 962
e 55 976
e 56 276
e 56 287
e 56 312
e 56 349
e 56 421
e 56 443
e 56 450
e 56 512
e 56 557
e 56 564
e 56 570
e 56 583
e 56 587
e 56 602
e 56 607
e 56 669
e 56 716
e 56 722
e 56 786
e 56 806
e 56 855
e 56 867
e 56 882
e 56 890
e 56 928
e 56 946
e 56 961
e 56 969
e 57 296
e 57 325
e 57 381
e 57 407
e 57 429
e 57 436
e 57 519
e 57 567
e 57 574
e 57 586
e 57 588
e 57 630
e 57 669
e 57 723
e 57 726
e 57 775
e 57 777
e 57 787
e 57 793
e 57 799
e 57 870
e 57 935
e 57 942
e 57 946
e 57 979
e 58 258
e 58 265
e 58 317
e 58 324
e 58 370
e 58 381
e 58 407
e 58 421
e 58 440
e 58 452
e 58 484
e 58 534
e 58 627
e 58 655
e 58 682
e 58 736
e 58 747
e 58 817
e 58 829
e 58 853
e 58 863
e 58 877
e 58 886
e 58 914
e 58 987
e 59 319
e 59 343
e 59 384
e 59 395
e 59 469
e 59 505
e 59 524
e 59 534
e 59 568
e 59 675
e 59 689
e 59 737
e 59 793
e 59 869
e 59 870
e 59 875
e 59 876
e 59 896
e 59 914
e 59 918
e 60 421
e 60 459
e 60 478
e 60 544
e 60 553
e 60 620
e 60 626
e 60 646
e 60 650
e 60 736
e 60 805
e 60 833
e 60 847
e 60 851
e 60 858
e 60 867
e 60 923
e 60 951
e 61 299
e 61 309
e 61 339
e 61 350
e 61 400
e 61 472
e 61 511
e 61 529
e 61 576
e 61 585
e 61 608
e 61 618
e 61 656
e 61 684
e 61 748
e 61 842
e 61 856
e 61 861
e 61 877
e 61 907
e 61 919
e 61 927
e 61 988
e 61 989
e 62 308
e 62 317
e 62 401
e 62 403
e 62 432
e 62 457
e 62 489
e 62 497
e 62 516
e 62 542
e 62 562
e 62 597
e 62 600
e 62 608
e 62 616
e 62 626
e 62 648
e 62 655
e 62 691
e 62 725
e 62 739
e 62 754
e 62 765
e 62 830
e 62 858
e 62 879
e 62 973
e 63 257
e 63 276
e 63 315
e 63 373
e 63 378
e 63 395
e 63 403
e 63 407
e 63 409
e 63 445
e 63 458
e 63 465
e 63 564
e 63 592
e 63 655
e 63 683
e 63 686
e 63 713
e 63 718
e 63 758
e 63 769
e 63 815
e 63 825
e 63 840
e 63 848
e 63 866
e 63 924
e 63 941
e 63 953
e 63 985
e 64 312
e 64 321
e 64 330
e 64 355
e 64 370
e 64 371
e 64 425
e 64 445
e 64 457
e 64 470
e 64 495
e 64 503
e 64 542
e 64 577
e 64 584
e 64 631
e 64 635
e 64 642
e 64 651
e 64 660
e 64 744
e 64 793
e 64 811
e 64 821
e 64 877
e 64 924
e 64 926
e 64 939
e 64 942
e 64 969
e 64 993
e 65 280
e 65 285
e 65 294
e 65 320
e 65 353
e 65 403
e 65 425
e 65 460
e 65 496
e 65 579
e 65 586
e 65 675
e 65 687
e 65 710
e 65 772
e 65 773
e 65 815
e 65 861
e 65 867
e 65 878
e 65 981
e 65 984
e 66 263
e 66 292
e 66 314
e 66 334
e 66 365
e 66 378
e 66 474
e 66 499
e 66 578
e 66 595
e 66 613
e 66 616
e 66 628
e 66 632
e 66 642
e 66 692
e 66 702
e 66 705
e 66 761
e 66 768
e 66 793
e 66 795
e 66 809
e 66 814
e 66 819
e 66 872
e 66 874
e 66 923
e 66 992
e 66 999
e 67 266
e 67 273
e 67 276
e 67 298
e 67 418
e 67 483
e 67 570
e 67 656
e 67 695
e 67 701
e 67 727
e 67 756
e 67 825
e 67 845
e 67 856
e 67 858
e 67 882
e 67 904
e 67 965
e 67 983
e 67 984
e 68 282
e 68 306
e 68 346
e 68 355
e 68 392
e 68 404
e 68 411
e 68 484
e 68 491
e 68 494
e 68 535
e 68 547
e 68 549
e 68 593
e 68 625
e 68 678
e 68 762
e 68 783
e 68 789
e 68 835
e 68 852
e 68 864
e 68 873
e 68 885
e 68 892
e 68 900
e 68 914
e 68 933
e 68 968
e 69 274
e 69 276
e 69 301
e 69 346
e 69 358
e 69 393
e 69 418
e 69 444
e 69 487
e 69 502
e 69 503
e 69 644
e 69 667
e 69 698
e 69 708
e 69 734
e 69 759
e 69 799
e 69 823
e 69 844
e 69 853
e 69 858
e 69 918
e 69 936
e 69 959
e 69 962
e 69 968
e 69 973
e 69 999
e 70 265
e 70 280
e 70 283
e 70 292
e 70 301
e 70 320
e 70 326
e 70 330
e 70 340
e 70 368
e 70 412
e 70 429
e 70 436
e 70 582
e 70 588
e 70 612
e 70 630
e 70 771
e 70 777
e 70 786
e 70 813
e 70 832
e 70 867
e 70 890
e 70 913
e 70 943
e 70 999
e 71 272
e 71 300
e 71 302
e 71 309
e 71 330
e 71 391
e 71 440
e 71 560
e 71 571
e 71 598
e 71 698
e 71 725
e 71 748
e 71 752
e 71 768
e 71 795
e 71 870
e 71 871
e 71 876
e 71 899
e 71 919
e 71 962
e 71 979
e 72 300
e 72 385
e 72 387
e 72 442
e 72 449
e 72 451
e 72 454
e 72 471
e 72 476
e 72 507
e 72 511
e 72 527
e 72 529
e 72 534
e 72 621
e 72 639
e 72 644
e 72 679
e 72 787
e 72 812
e 72 864
e 72 887
e 72 901
e 72 945
e 72 946
e 72 961
e 72 978
e 73 254
e 73 273
e 73 292
e 73 348
e 73 352
e 73 379
e 73 409
e 73 422
e 73 483
e 73 491
e 73 495
e 73 501
e 73 523
e 73 549
e 73 602
e 73 617
e 73 643
e 73 650
e 73 665
e 73 673
e 73 703
e 73 727
e 73 754
e 73 808
e 73 855
e 73 901
e 73 906
e 73 910
e 73 934
e 73 976
e 73 990
e 73 991
e 74 256
e 74 267
e 74 308
e 74 311
e 74 350
e 74 424
e 74 455
e 74 461
e 74 583
e 74 615
e 74 623
e 74 661
e 74 669
e 74 674
e 74 691
e 74 695
e 74 760
e 74 771
e 74 830
e 74 840
e 74 887
e 74 907
e 74 921
e 74 934
e 74 938
e 74 959
e 75 304
e 75 379
e 75 463
e 75 480
e 75 490
e 75 504
e 75 521
e 75 546
e 75 557
e 75 583
e 75 618
e 75 646
e 75 704
e 75 736
e 75 759
e 75 788
e 75 790
e 75 799
e 75 811
e 75 850
e 75 882
e 75 888
e 75 919
e 76 263
e 76 276
e 76 279
e 76 318
e 76 343
e 76 385
e 76 395
e 76 413
e 76 432
e 76 462
e 76 488
e 76 584
e 76 668
e 76 696
e 76 774
e 76 777
e 76 816
e 76 834
e 76 925
e 76 945
e 76 959
e 76 963
e 76 967
e 76 984
e 77 374
e 77 429
e 77 453
e 77 462
e 77 485
e 77 491
e 77 493
e 77 498
e 77 635
e 77 694
e 77 706
e 77 709
e 77 721
e 77 767
e 77 768
e 77 829
e 77 876
e 77 975
e 78 255
e 78 267
e 78 279
e 78 283
e 78 285
e 78 291
e 78 306
e 78 325
e 78 332
e 78 366
e 78 402
e 78 415
e 78 470
e 78 526
e 78 538
e 78 540
e 78 546
e 78 587
e 78 620
e 78 624
e 78 672
e 78 709
e 78 759
e 78 811
e 78 841
e 78 853
e 78 887
e 78 897
e 78 928
e 79 270
e 79 279
e 79 303
e 79 373
e 79 406
e 79 418
e 79 472
e 79 544
e 79 557
e 79 572
e 79 602
e 79 646
e 79 662
e 79 681
e 79 710
e 79 727
e 79 748
e 79 773
e 79 779
e 79 789
e 79 811
e 79 836
e 79 859
e 79 885
e 79 905
e 79 922
e 79 924
e 79 953
e 79 1000
e 80 252
e 80 393
e 80 408
e 80 439
e 80 445
e 80 486
e 80 526
e 80 535
e 80 539
e 80 566
e 80 584
e 80 622
e 80 643
e 80 645
e 80 750
e 80 753
e 80 849
e 80 901
e 80 909
e 80 933
e 80 957
e 81 263
e 81 407
e 81 428
e 81 438
e 81 454
e 81 494
e 81 585
e 81 586
e 81 602
e 81 709
e 81 718
e 81 723
e 81 751
e 81 798
e 81 819
e 81 838
e 81 878
e 81 977
e 81 993
e 82 345
e 82 365
e 82 392
e 82 418
e 82 490
e 82 522
e 82 526
e 82 549
e 82 613
e 82 675
e 82 695
e 82 742
e 82 765
e 82 795
e 82 808
e 82 836
e 82 843
e 82 851
e 82 858
e 82 866
e 82 895
e 82 937
e 82 952
e 82 962
e 82 994
e 82 1000
e 83 320
e 83 332
e 83 344
e 83 346
e 83 371
e 83 374
e 83 418
e 83 421
e 83 439
e 83 492
e 83 575
e 83 648
e 83 682
e 83 709
e 83 715
e 83 729
e 83 794
e 83 817
e 83 844
e 83 917
e 83 980
e 84 314
e 84 339
e 84 354
e 84 405
e 84 443
e 84 448
e 84 489
e 84 538
e 84 564
e 84 655
e 84 661
e 84 688
e 84 709
e 84 834
e 84 854
e 84 866
e 84 903
e 84 931
e 84 937
e 84 940
e 85 285
e 85 331
e 85 371
e 85 376
e 85 410
e 85 470
e 85 473
e 85 617
e 85 624
e 85 632
e 85 650
e 85 678
e 85 721
e 85 759
e 85 829
e 85 850
e 85 864
e 85 886
e 85 891
e 85 907
e 85 952
e 85 1000
e 86 408
e 86 424
e 86 438
e 86 439
e 86 442
e 86 469
e 86 567
e 86 574
e 86 594
e 86 609
e 86 610
e 86 621
e 86 660
e 86 663
e 86 677
e 86 679
e 86 690
e 86 697
e 86 704
e 86 716
e 86 733
e 86 759
e 86 775
e 86 813
e 86 834
e 86 978
e 86 982
e 87 265
e 87 341
e 87 354
e 87 382
e 87 386
e 87 392
e 87 420
e 87 447
e 87 491
e 87 541
e 87 561
e 87 572
e 87 577
e 87 630
e 87 707
e 87 777
e 87 808
e 87 879
e 87 880
e 87 911
e 87 959
e 87 983
e 87 985
e 88 337
e 88 354
e 88 375
e 88 397
e 88 439
e 88 489
e 88 553
e 88 570
e 88 690
e 88 740
e 88 781
e 88 803
e 88 810
e 88 891
e 88 909
e 88 926
e 88 946
e 88 948
e 88 953
e 88 960
e 88 965
e 89 267
e 89 363
e 89 369
e 89 427
e 89 467
e 89 496
e 89 498
e 89 499
e 89 510
e 89 529
e 89 540
e 89 662
e 89 669
e 89 686
e 89 691
e 89 704
e 89 705
e 89 737
e 89 750
e 89 755
e 89 843
e 89 859
e 89 900
e 89 924
e 89 983
e 90 358
e 90 376
e 90 385
e 90 390
e 90 407
e 90 414
e 90 426
e 90 428
e 90 455
e 90 574
e 90 578
e 90 580
e 90 622
e 90 642
e 90 671
e 90 711
e 90 724
e 90 747
e 90 820
e 90 828
e 90 872
e 90 875
e 90 893
e 90 901
e 90 939
e 90 975
e 91 262
e 91 284
e 91 313
e 91 344
e 91 345
e 91 361
e 91 463
e 91 502
e 91 597
e 91 598
e 91 610
e 91 624
e 91 636
e 91 745
e 91 801
e 91 849
e 91 863
e 91 933
e 91 949
e 91 1000
e 92 255
e 92 345
e 92 355
e 92 464
e 92 498
e 92 609
e 92 613
e 92 636
e 92 705
e 92 726
e 92 764
e 92 790
e 92 833
e 92 839
e 92 874
e 92 935
e 93 261
e 93 263
e 93 318
e 93 352
e 93 374
e 93 477
e 93 484
e 93 503
e 93 504
e 93 530
e 93 541
e 93 612
e 93 641
e 93 666
e 93 677
e 93 682
e 93 695
e 93 734
e 93 811
e 93 827
e 93 851
e 93 884
e 93 893
e 93 932
e 93 940
e 93 946
e 93 958
e 94 300
e 94 313
e 94 374
e 94 395
e 94 531
e 94 539
e 94 552
e 94 560
e 94 566
e 94 636
e 94 646
e 94 657
e 94 669
e 94 678
e 94 704
e 94 716
e 94 718
e 94 749
e 94 767
e 94 800
e 94 818
e 94 823
e 94 909
e 94 921
e 95 256
e 95 295
e 95 321
e 95 353
e 95 400
e 95 431
e 95 451
e 95 455
e 95 458
e 95 463
e 95 465
e 95 539
e 95 593
e 95 664
e 95 665
e 95 668
e 95 749
e 95 753
e 95 836
e 95 856
e 95 892
e 95 899
e 95 914
e 95 930
e 96 367
e 96 392
e 96 402
e 96 426
e 96 433
e 96 437
e 96 493
e 96 515
e 96 543
e 96 571
e 96 596
e 96 606
e 96 734
e 96 739
e 96 782
e 96 785
e 96 825
e 96 831
e 96 852
e 96 867
e 96 890
e 96 901
e 96 905
e 96 911
e 96 934
e 96 981
e 96 992
e 97 304
e 97 315
e 97 317
e 97 474
e 97 482
e 97 533
e 97 700
e 97 743
e 97 745
e 97 767
e 97 778
e 97 809
e 97 902
e 97 922
e 97 954
e 98 263
e 98 283
e 98 287
e 98 395
e 98 421
e 98 454
e 98 462
e 98 478
e 98 598
e 98 600
e 98 605
e 98 623
e 98 632
e 98 635
e 98 691
e 98 702
e 98 707
e 98 755
e 98 776
e 98 783
e 98 810
e 98 814
e 98 919
e 98 988
e 99 283
e 99 300
e 99 324
e 99 326
e 99 344
e 99 347
e 99 372
e 99 373
e 99 378
e 99 385
e 99 397
e 99 420
e 99 426
e 99 463
e 99 519
e 99 663
e 99 674
e 99 680
e 99 714
e 99 764
e 99 833
e 99 885
e 99 908
e 99 959
e 99 968
e 99 978
e 100 286
e 100 307
e 100 367
e 100 371
e 100 378
e 100 381
e 100 382
e 100 387
e 100 390
e 100 414
e 100 509
e 100 588
e 100 597
e 100 610
e 100 622
e 100 632
e 100 674
e 100 719
e 100 726
e 100 753
e 100 782
e 100 791
e 100 800
e 100 858
e 100 886
e 100 932
e 100 988
e 101 255
e 101 279
e 101 287
e 101 307
e 101 334
e 101 385
e 101 409
e 101 455
e 101 499
e 101 507
e 101 526
e 101 533
e 101 536
e 101 545
e 101 601
e 101 605
e 101 674
e 101 681
e 101 704
e 101 722
e 101 779
e 101 823
e 101 846
e 101 857
e 101 905
e 101 926
e 101 965
e 102 364
e 102 387
e 102 427
e 102 437
e 102 441
e 102 466
e 102 488
e 102 532
e 102 592
e 102 626
e 102 632
e 102 655
e 102 668
e 102 709
e 102 785
e 103 295
e 103 323
e 103 329
e 103 386
e 103 391
e 103 423
e 103 433
e 103 443
e 103 460
e 103 503
e 103 565
e 103 591
e 103 598
e 103 615
e 103 659
e 103 801
e 103 809
e 104 281
e 104 325
e 104 339
e 104 403
e 104 423
e 104 477
e 104 489
e 104 509
e 104 528
e 104 555
e 104 591
e 104 623
e 104 667
e 104 703
e 104 740
e 104 747
e 104 769
e 104 803
e 104 838
e 104 848
e 104 948
e 104 961
e 105 352
e 105 401
e 105 402
e 105 438
e 105 459
e 105 472
e 105 543
e 105 545
e 105 557
e 105 627
e 105 662
e 105 717
e 105 757
e 105 758
e 105 762
e 105 849
e 105 879
e 105 886
e 105 895
e 105 901
e 105 907
e 105 948
e 105 988
e 105 999
e 106 258
e 106 259
e 106 278
e 106 307
e 106 328
e 106 345
e 106 378
e 106 438
e 106 444
e 106 538
e 106 577
e 106 601
e 106 642
e 106 662
e 106 756
e 106 793
e 106 796
e 106 947
e 106 963
e 106 983
e 107 255
e 107 277
e 107 295
e 107 305
e 107 308
e 107 314
e 107 325
e 107 380
e 107 382
e 107 399
e 107 450
e 107 480
e 107 488
e 107 489
e 107 511
e 107 576
e 107 589
e 107 596
e 107 599
e 107 661
e 107 695
e 107 704
e 107 753
e 107 786
e 107 863
e 107 887
e 107 897
e 107 922
e 107 980
e 108 277
e 108 302
e 108 312
e 108 326
e 108 437
e 108 456
e 108 459
e 108 513
e 108 554
e 108 606
e 108 619
e 108 628
e 108 682
e 108 699
e 108 716
e 108 745
e 108 751
e 108 769
e 108 800
e 108 841
e 108 863
e 108 871
e 108 894
e 108 905
e 108 956
e 108 958
e 108 965
e 108 966
e 108 971
e 108 974
e 108 994
e 109 252
e 109 261
e 109 265
e 109 269
e 109 274
e 109 304
e 109 331
e 109 357
e 109 407
e 109 424
e 109 459
e 109 479
e 109 496
e 109 500
e 109 518
e 109 525
e 109 531
e 109 533
e 109 553
e 109 556
e 109 635
e 109 651
e 109 655
e 109 668
e 109 745
e 109 757
e 109 783
e 109 837
e 109 842
e 109 844
e 109 871
e 109 876
e 109 889
e 109 923
e 109 936
e 109 961
e 110 259
e 110 276
e 110 290
e 110 445
e 110 460
e 110 483
e 110 491
e 110 537
e 110 550
e 110 555
e 110 564
e 110 567
e 110 602
e 110 768
e 110 808
e 110 810
e 110 813
e 110 826
e 110 877
e 110 882
e 110 905
e 110 906
e 110 935
e 110 981
e 110 988
e 110 990
e 111 261
e 111 287
e 111 297
e 111 317
e 111 340
e 111 368
e 111 400
e 111 409
e 111 468
e 111 523
e 111 548
e 111 559
e 111 587
e 111 588
e 111 683
e 111 716
e 111 718
e 111 731
e 111 737
e 111 825
e 111 826
e 111 846
e 111 868
e 111 875
e 111 907
e 111 935
e 111 952
e 111 959
e 111 982
e 112 309
e 112 335
e 112 364
e 112 439
e 112 444
e 112 497
e 112 515
e 112 556
e 112 590
e 112 619
e 112 623
e 112 632
e 112 656
e 112 666
e 112 678
e 112 690
e 112 713
e 112 824
e 112 845
e 112 855
e 112 868
e 112 876
e 112 901
e 112 989
e 113 281
e 113 288
e 113 319
e 113 332
e 113 347
e 113 361
e 113 384
e 113 440
e 113 477
e 113 552
e 113 568
e 113 617
e 113 665
e 113 678
e 113 683
e 113 730
e 113 745
e 113 786
e 113 900
e 113 906
e 113 907
e 113 911
e 113 991
e 113 992
e 114 294
e 114 312
e 114 328
e 114 339
e 114 353
e 114 373
e 114 379
e 114 402
e 114 413
e 114 432
e 114 441
e 114 458
e 114 479
e 114 516
e 114 541
e 114 577
e 114 582
e 114 649
e 114 723
e 114 789
e 114 846
e 115 256
e 115 257
e 115 286
e 115 310
e 115 320
e 115 371
e 115 377
e 115 496
e 115 499
e 115 520
e 115 529
e 115 530
e 115 544
e 115 624
e 115 672
e 115 679
e 115 710
e 115 753
e 115 758
e 115 767
e 115 773
e 115 819
e 115 833
e 115 945
e 115 950
e 115 955
e 116 255
e 116 301
e 116 325
e 116 582
e 116 651
e 116 680
e 116 702
e 116 794
e 116 825
e 116 846
e 116 864
e 116 906
e 116 918
e 116 950
e 116 972
e 116 993
e 117 259
e 117 262
e 117 327
e 117 359
e 117 450
e 117 466
e 117 508
e 117 520
e 117 542
e 117 546
e 117 560
e 117 588
e 117 601
e 117 641
e 117 667
e 117 690
e 117 731
e 117 788
e 117 816
e 117 864
e 117 919
e 117 963
e 117 966
e 117 987
e 117 996
e 117 999
e 118 270
e 118 279
e 118 335
e 118 342
e 118 359
e 118 366
e 118 367
e 118 380
e 118 383
e 118 395
e 118 397
e 118 401
e 118 459
e 118 509
e 118 519
e 118 522
e 118 635
e 118 678
e 118 687
e 118 751
e 118 786
e 118 791
e 118 829
e 118 890
e 118 987
e 119 403
e 119 406
e 119 421
e 119 445
e 119 486
e 119 503
e 119 510
e 119 528
e 119 548
e 119 555
e 119 669
e 119 699
e 119 700
e 119 710
e 119 728
e 119 755
e 119 761
e 119 803
e 119 807
e 119 809
e 119 821
e 120 286
e 120 314
e 120 331
e 120 337
e 120 387
e 120 400
e 120 417
e 120 443
e 120 448
e 120 454
e 120 492
e 120 518
e 120 522
e 120 526
e 120 539
e 120 545
e 120 599
e 120 707
e 120 743
e 120 759
e 120 805
e 120 808
e 120 842
e 120 857
e 120 902
e 120 944
e 120 964
e 121 263
e 121 328
e 121 344
e 121 376
e 121 386
e 121 402
e 121 418
e 121 477
e 121 504
e 121 510
e 121 517
e 121 539
e 121 582
e 121 584
e 121 592
e 121 666
e 121 706
e 121 714
e 121 819
e 121 849
e 121 867
e 121 949
e 121 967
e 121 982
e 121 987
e 122 257
e 122 301
e 122 305
e 122 338
e 122 369
e 122 427
e 122 443
e 122 477
e 122 568
e 122 581
e 122 609
e 122 627
e 122 692
e 122 705
e 122 746
e 122 771
e 122 788
e 122 817
e 122 838
e 122 849
e 122 862
e 122 896
e 122 944
e 123 298
e 123 318
e 123 359
e 123 360
e 123 412
e 123 497
e 123 502
e 123 516
e 123 531
e 123 562
e 123 608
e 123 629
e 123 636
e 123 657
e 123 713
e 123 783
e 123 818
e 123 819
e 123 860
e 123 915
e 123 934
e 123 998
e 124 258
e 124 272
e 124 273
e 124 275
e 124 449
e 124 451
e 124 465
e 124 498
e 124 546
e 124 570
e 124 591
e 124 641
e 124 688
e 124 714
e 124 766
e 124 783
e 124 798
e 124 812
e 124 888
e 124 893
e 124 895
e 124 940
e 124 961
e 125 329
e 125 343
e 125 347
e 125 412
e 125 423
e 125 445
e 125 472
e 125 495
e 125 571
e 125 590
e 125 677
e 125 692
e 125 762
e 125 792
e 125 909
e 125 912
e 125 917
e 125 944
e 125 966
e 125 967
e 126 382
e 126 392
e 126 427
e 126 475
e 126 717
e 126 746
e 126 759
e 126 808
e 126 918
e 126 923
e 127 262
e 127 283
e 127 343
e 127 357
e 127 384
e 127 386
e 127 390
e 127 413
e 127 419
e 127 559
e 127 563
e 127 637
e 127 660
e 127 662
e 127 673
e 127 732
e 127 772
e 127 838
e 127 845
e 127 873
e 127 929
e 127 940
e 127 958
e 128 259
e 128 280
e 128 303
e 128 335
e 128 368
e 128 378
e 128 421
e 128 442
e 128 473
e 128 509
e 128 542
e 128 570
e 128 679
e 128 689
e 128 733
e 128 741
e 128 792
e 128 827
e 128 853
e 128 941
e 129 284
e 129 295
e 129 351
e 129 360
e 129 391
e 129 392
e 129 402
e 129 480
e 129 484
e 129 494
e 129 513
e 129 515
e 129 519
e 129 531
e 129 545
e 129 548
e 129 553
e 129 574
e 129 637
e 129 653
e 129 714
e 129 724
e 129 760
e 129 770
e 129 792
e 129 814
e 129 815
e 129 829
e 129 841
e 129 848
e 129 853
e 129 865
e 129 899
e 130 278
e 130 355
e 130 375
e 130 387
e 130 428
e 130 440
e 130 476
e 130 478
e 130 551
e 130 553
e 130 598
e 130 601
e 130 639
e 130 707
e 130 719
e 130 737
e 130 754
e 130 767
e 130 787
e 130 797
e 130 845
e 130 883
e 130 891
e 130 894
e 130 895
e 130 913
e 130 957
e 130 961
e 130 965
e 130 993
e 131 293
e 131 356
e 131 419
e 131 445
e 131 513
e 131 538
e 131 547
e 131 597
e 131 664
e 131 697
e 131 699
e 131 708
e 131 807
e 131 817
e 131 841
e 131 848
e 131 939
e 131 976
e 131 1000
e 132 265
e 132 280
e 132 292
e 132 305
e 132 378
e 132 437
e 132 467
e 132 510
e 132 522
e 132 533
e 132 539
e 132 557
e 132 564
e 132 590
e 132 596
e 132 598
e 132 599
e 132 613
e 132 704
e 132 765
e 132 924
e 133 272
e 133 289
e 133 349
e 133 358
e 133 414
e 133 427
e 133 432
e 133 472
e 133 588
e 133 643
e 133 654
e 133 661
e 133 712
e 133 740
e 133 756
e 133 839
e 133 890
e 133 900
e 133 946
e 133 958
e 133 970
e 134 339
e 134 345
e 134 367
e 134 370
e 134 386
e 134 408
e 134 409
e 134 427
e 134 428
e 134 433
e 134 474
e 134 509
e 134 515
e 134 521
e 134 563
e 134 659
e 134 703
e 134 742
e 134 793
e 134 828
e 134 866
e 134 867
e 134 889
e 134 933
e 134 937
e 134 977
e 135 264
e 135 277
e 135 298
e 135 417
e 135 509
e 135 568
e 135 631
e 135 697
e 135 732
e 135 763
e 135 801
e 135 808
e 135 876
e 135 938
e 135 944
e 135 975
e 135 987
e 135 991
e 136 258
e 136 262
e 136 303
e 136 352
e 136 405
e 136 457
e 136 467
e 136 539
e 136 542
e 136 555
e 136 564
e 136 615
e 136 632
e 136 697
e 136 741
e 136 746
e 136 790
e 136 864
e 136 899
e 136 955
e 136 983
e 137 255
e 137 428
e 137 443
e 137 450
e 137 502
e 137 503
e 137 595
e 137 598
e 137 662
e 137 810
e 137 957
e 138 253
e 138 254
e 138 275
e 138 352
e 138 359
e 138 399
e 138 404
e 138 459
e 138 470
e 138 493
e 138 526
e 138 537
e 138 568
e 138 617
e 138 620
e 138 622
e 138 623
e 138 661
e 138 675
e 138 717
e 138 772
e 138 890
e 138 908
e 138 971
e 139 280
e 139 284
e 139 287
e 139 302
e 139 339
e 139 355
e 139 456
e 139 468
e 139 469
e 139 470
e 139 487
e 139 488
e 139 517
e 139 559
e 139 590
e 139 614
e 139 705
e 139 730
e 139 749
e 139 891
e 139 892
e 139 949
e 140 392
e 140 407
e 140 414
e 140 422
e 140 429
e 140 438
e 140 533
e 140 557
e 140 577
e 140 581
e 140 594
e 140 741
e 140 747
e 140 831
e 140 841
e 140 849
e 140 863
e 140 874
e 140 895
e 140 899
e 140 907
e 141 252
e 141 311
e 141 371
e 141 391
e 141 442
e 141 466
e 141 532
e 141 536
e 141 563
e 141 573
e 141 630
e 141 633
e 141 643
e 141 647
e 141 667
e 141 668
e 141 676
e 141 689
e 141 692
e 141 705
e 141 718
e 141 721
e 141 780
e 141 827
e 141 922
e 141 970
e 142 283
e 142 289
e 142 329
e 142 385
e 142 410
e 142 480
e 142 499
e 142 502
e 142 567
e 142 601
e 142 634
e 142 663
e 142 694
e 142 722
e 142 737
e 142 800
e 142 814
e 142 818
e 142 824
e 142 836
e 142 898
e 142 904
e 142 951
e 142 953
e 142 970
e 142 980
e 143 268
e 143 276
e 143 341
e 143 346
e 143 374
e 143 399
e 143 451
e 143 499
e 143 503
e 143 516
e 143 517
e 143 559
e 143 564
e 143 651
e 143 696
e 143 719
e 143 741
e 143 806
e 143 892
e 143 897
e 143 939
e 143 968
e 143 994
e 144 293
e 144 314
e 144 316
e 144 317
e 144 370
e 144 376
e 144 381
e 144 384
e 144 484
e 144 506
e 144 619
e 144 622
e 144 625
e 144 650
e 144 651
e 144 741
e 144 747
e 144 811
e 144 884
e 144 888
e 144 912
e 144 926
e 144 945
e 145 282
e 145 369
e 145 388
e 145 409
e 145 421
e 145 423
e 145 463
e 145 477
e 145 478
e 145 490
e 145 510
e 145 532
e 145 643
e 145 644
e 145 660
e 145 684
e 145 686
e 145 696
e 145 728
e 145 732
e 145 749
e 145 781
e 145 788
e 145 862
e 145 865
e 145 927
e 145 950
e 146 356
e 146 364
e 146 393
e 146 394
e 146 462
e 146 531
e 146 591
e 146 593
e 146 608
e 146 623
e 146 653
e 146 765
e 146 856
e 146 883
e 146 912
e 146 915
e 146 939
e 147 256
e 147 273
e 147 298
e 147 326
e 147 373
e 147 384
e 147 471
e 147 554
e 147 637
e 147 649
e 147 702
e 147 704
e 147 718
e 147 724
e 147 740
e 147 849
e 147 888
e 147 898
e 147 933
e 147 959
e 147 997
e 148 276
e 148 334
e 148 343
e 148 349
e 148 479
e 148 519
e 148 522
e 148 553
e 148 589
e 148 599
e 148 642
e 148 690
e 148 705
e 148 731
e 148 756
e 148 838
e 148 880
e 148 892
e 148 923
e 149 276
e 149 288
e 149 318
e 149 340
e 149 367
e 149 465
e 149 471
e 149 492
e 149 499
e 149 504
e 149 583
e 149 844
e 149 856
e 149 921
e 149 934
e 149 961
e 150 252
e 150 269
e 150 317
e 150 350
e 150 422
e 150 443
e 150 534
e 150 557
e 150 568
e 150 594
e 150 598
e 150 608
e 150 667
e 150 692
e 150 697
e 150 724
e 150 730
e 150 763
e 150 827
e 150 884
e 150 896
e 150 901
e 150 907
e 151 362
e 151 363
e 151 373
e 151 382
e 151 395
e 151 403
e 151 444
e 151 510
e 151 559
e 151 560
e 151 562
e 151 578
e 151 605
e 151 710
e 151 729
e 151 836
e 151 872
e 151 884
e 151 969
e 151 973
e 151 987
e 151 993
e 152 316
e 152 325
e 152 356
e 152 416
e 152 439
e 152 441
e 152 458
e 152 529
e 152 569
e 152 591
e 152 640
e 152 693
e 152 809
e 152 844
e 152 896
e 153 265
e 153 301
e 153 310
e 153 354
e 153 357
e 153 420
e 153 486
e 153 503
e 153 511
e 153 550
e 153 692
e 153 698
e 153 712
e 153 714
e 153 747
e 153 774
e 153 836
e 153 976
e 153 997
e 154 260
e 154 292
e 154 318
e 154 423
e 154 562
e 154 591
e 154 624
e 154 655
e 154 661
e 154 663
e 154 691
e 154 695
e 154 726
e 154 734
e 154 773
e 154 775
e 154 877
e 154 886
e 154 892
e 154 964
e 154 981
e 154 988
e 154 994
e 154 998
e 154 1000
e 155 323
e 155 328
e 155 412
e 155 447
e 155 473
e 155 478
e 155 500
e 155 659
e 155 805
e 155 839
e 155 854
e 155 904
e 155 916
e 155 934
e 155 990
e 156 265
e 156 269
e 156 374
e 156 378
e 156 385
e 156 423
e 156 467
e 156 563
e 156 569
e 156 599
e 156 600
e 156 632
e 156 634
e 156 689
e 156 718
e 156 729
e 156 778
e 156 812
e 156 907
e 156 920
e 156 923
e 156 932
e 156 960
e 156 973
e 156 982
e 156 996
e 157 254
e 157 277
e 157 286
e 157 328
e 157 364
e 157 384
e 157 387
e 157 403
e 157 421
e 157 486
e 157 541
e 157 633
e 157 635
e 157 663
e 157 707
e 157 763
e 157 779
e 157 790
e 157 827
e 157 871
e 157 985
e 158 254
e 158 274
e 158 284
e 158 305
e 158 310
e 158 335
e 158 369
e 158 373
e 158 382
e 158 383
e 158 386
e 158 390
e 158 412
e 158 416
e 158 438
e 158 488
e 158 493
e 158 510
e 158 546
e 158 552
e 158 615
e 158 639
e 158 740
e 158 759
e 158 811
e 158 820
e 158 884
e 158 895
e 158 908
e 158 987
e 159 321
e 159 327
e 159 329
e 159 342
e 159 396
e 159 421
e 159 428
e 159 459
e 159 484
e 159 528
e 159 557
e 159 640
e 159 677
e 159 700
e 159 769
e 159 774
e 159 804
e 159 847
e 159 896
e 159 930
e 159 939
e 159 945
e 159 954
e 159 978
e 160 310
e 160 384
e 160 432
e 160 444
e 160 487
e 160 497
e 160 539
e 160 619
e 160 700
e 160 718
e 160 728
e 160 729
e 160 756
e 160 809
e 160 830
e 160 831
e 160 836
e 160 842
e 160 844
e 160 853
e 160 866
e 160 950
e 161 281
e 161 321
e 161 371
e 161 385
e 161 407
e 161 432
e 161 436
e 161 443
e 161 476
e 161 514
e 161 528
e 161 553
e 161 607
e 161 772
e 161 773
e 161 949
e 161 950
e 161 988
e 162 259
e 162 330
e 162 528
e 162 530
e 162 545
e 162 553
e 162 574
e 162 609
e 162 652
e 162 695
e 162 759
e 162 786
e 162 795
e 162 820
e 162 850
e 162 869
e 162 963
e 162 970
e 162 975
e 162 985
e 163 328
e 163 349
e 163 384
e 163 429
e 163 443
e 163 459
e 163 462
e 163 623
e 163 684
e 163 782
e 163 797
e 163 810
e 163 900
e 163 928
e 164 258
e 164 316
e 164 317
e 164 333
e 164 345
e 164 387
e 164 461
e 164 629
e 164 642
e 164 646
e 164 677
e 164 678
e 164 708
e 164 756
e 164 757
e 164 801
e 164 803
e 164 807
e 164 837
e 164 845
e 164 919
e 164 958
e 164 972
e 165 301
e 165 349
e 165 350
e 165 435
e 165 504
e 165 550
e 165 612
e 165 618
e 165 636
e 165 662
e 165 666
e 165 766
e 165 889
e 165 891
e 165 905
e 165 969
e 165 982
e 166 256
e 166 281
e 166 302
e 166 355
e 166 360
e 166 363
e 166 404
e 166 406
e 166 416
e 166 460
e 166 471
e 166 475
e 166 488
e 166 548
e 166 593
e 166 599
e 166 609
e 166 632
e 166 642
e 166 726
e 166 743
e 166 824
e 166 855
e 166 882
e 166 887
e 166 896
e 166 919
e 167 302
e 167 393
e 167 488
e 167 521
e 167 621
e 167 683
e 167 694
e 167 740
e 167 792
e 167 831
e 167 837
e 167 862
e 167 895
e 167 906
e 167 946
e 167 991
e 168 252
e 168 266
e 168 298
e 168 410
e 168 505
e 168 573
e 168 603
e 168 604
e 168 621
e 168 638
e 168 644
e 168 691
e 168 787
e 168 800
e 168 810
e 168 872
e 168 957
e 168 989
e 168 993
e 168 997
e 169 321
e 169 359
e 169 375
e 169 387
e 169 394
e 169 412
e 169 426
e 169 530
e 169 544
e 169 591
e 169 635
e 169 731
e 169 733
e 169 781
e 169 810
e 169 825
e 169 885
e 169 979
e 170 291
e 170 350
e 170 453
e 170 529
e 170 713
e 170 716
e 170 740
e 170 828
e 170 987
e 171 293
e 171 311
e 171 355
e 171 364
e 171 479
e 171 480
e 171 485
e 171 598
e 171 621
e 171 730
e 171 734
e 171 744
e 171 745
e 171 790
e 171 813
e 171 868
e 171 924
e 171 970
e 171 995
e 172 365
e 172 383
e 172 457
e 172 526
e 172 623
e 172 636
e 172 670
e 172 706
e 172 730
e 172 734
e 172 743
e 172 757
e 172 760
e 172 825
e 172 833
e 172 897
e 172 921
e 172 952
e 172 961
e 172 986
e 172 990
e 173 268
e 173 317
e 173 335
e 173 353
e 173 419
e 173 449
e 173 456
e 173 475
e 173 485
e 173 503
e 173 504
e 173 602
e 173 627
e 173 631
e 173 642
e 173 666
e 173 667
e 173 668
e 173 719
e 173 751
e 173 829
e 173 850
e 173 856
e 173 877
e 173 921
e 173 981
e 174 280
e 174 335
e 174 341
e 174 343
e 174 365
e 174 390
e 174 404
e 174 453
e 174 462
e 174 464
e 174 472
e 174 512
e 174 542
e 174 567
e 174 626
e 174 667
e 174 743
e 174 812
e 174 865
e 174 912
e 174 937
e 174 954
e 174 972
e 174 980
e 175 375
e 175 380
e 175 475
e 175 517
e 175 566
e 175 570
e 175 639
e 175 707
e 175 721
e 175 844
e 175 872
e 175 874
e 175 876
e 175 877
e 175 982
e 176 260
e 176 266
e 176 355
e 176 398
e 176 404
e 176 474
e 176 488
e 176 508
e 176 529
e 176 571
e 176 580
e 176 623
e 176 641
e 176 657
e 176 658
e 176 696
e 176 719
e 176 721
e 176 774
e 176 782
e 176 793
e 176 799
e 176 831
e 176 836
e 176 902
e 176 907
e 176 945
e 176 956
e 176 957
e 176 992
e 177 259
e 177 265
e 177 273
e 177 340
e 177 344
e 177 408
e 177 451
e 177 489
e 177 615
e 177 625
e 177 626
e 177 647
e 177 672
e 177 692
e 177 694
e 177 776
e 177 781
e 177 880
e 177 897
e 177 931
e 177 984
e 177 992
e 178 267
e 178 300
e 178 311
e 178 320
e 178 330
e 178 337
e 178 355
e 178 358
e 178 447
e 178 463
e 178 567
e 178 568
e 178 588
e 178 590
e 178 639
e 178 650
e 178 698
e 178 705
e 178 723
e 178 736
e 178 784
e 178 881
e 178 908
e 178 912
e 178 949
e 179 275
e 179 309
e 179 341
e 179 370
e 179 394
e 179 432
e 179 442
e 179 488
e 179 576
e 179 597
e 179 620
e 179 631
e 179 699
e 179 732
e 179 752
e 179 800
e 179 803
e 179 890
e 179 903
e 179 968
e 179 986
e 179 991
e 179 992
e 180 266
e 180 293
e 180 309
e 180 318
e 180 330
e 180 352
e 180 378
e 180 381
e 180 406
e 180 481
e 180 504
e 180 568
e 180 595
e 180 615
e 180 618
e 180 739
e 180 755
e 180 772
e 180 834
e 180 843
e 180 887
e 180 957
e 181 257
e 181 285
e 181 378
e 181 388
e 181 441
e 181 472
e 181 519
e 181 538
e 181 577
e 181 581
e 181 601
e 181 626
e 181 629
e 181 674
e 181 679
e 181 724
e 181 733
e 181 745
e 181 894
e 181 982
e 181 983
e 182 276
e 182 357
e 182 361
e 182 363
e 182 512
e 182 528
e 182 547
e 182 693
e 182 724
e 182 725
e 182 790
e 182 822
e 182 835
e 182 844
e 182 989
e 182 991
e 183 281
e 183 306
e 183 330
e 183 421
e 183 434
e 183 442
e 183 454
e 183 472
e 183 497
e 183 504
e 183 542
e 183 547
e 183 566
e 183 675
e 183 679
e 183 704
e 183 724
e 183 730
e 183 779
e 183 787
e 183 804
e 183 806
e 183 823
e 183 857
e 183 872
e 183 933
e 183 941
e 183 980
e 183 985
e 184 298
e 184 303
e 184 327
e 184 329
e 184 382
e 184 432
e 184 487
e 184 526
e 184 586
e 184 623
e 184 648
e 184 740
e 184 751
e 184 810
e 184 834
e 184 863
e 184 872
e 184 904
e 184 945
e 185 290
e 185 297
e 185 304
e 185 361
e 185 410
e 185 417
e 185 434
e 185 491
e 185 589
e 185 609
e 185 614
e 185 654
e 185 669
e 185 671
e 185 680
e 185 715
e 185 761
e 185 816
e 185 851
e 185 889
e 185 994
e 186 252
e 186 344
e 186 348
e 186 561
e 186 577
e 186 584
e 186 598
e 186 647
e 186 648
e 186 704
e 186 715
e 186 736
e 186 778
e 186 802
e 186 826
e 186 843
e 186 845
e 186 846
e 186 870
e 186 872
e 186 883
e 186 907
e 186 917
e 186 990
e 187 268
e 187 354
e 187 367
e 187 373
e 187 411
e 187 432
e 187 437
e 187 544
e 187 561
e 187 599
e 187 638
e 187 663
e 187 681
e 187 700
e 187 738
e 187 766
e 187 805
e 187 838
e 187 863
e 187 916
e 187 925
e 187 934
e 187 945
e 187 985
e 188 276
e 188 286
e 188 471
e 188 487
e 188 503
e 188 515
e 188 575
e 188 646
e 188 690
e 188 697
e 188 756
e 188 863
e 188 880
e 188 892
e 188 912
e 188 956
e 189 264
e 189 278
e 189 319
e 189 332
e 189 362
e 189 377
e 189 399
e 189 458
e 189 488
e 189 555
e 189 558
e 189 639
e 189 660
e 189 661
e 189 694
e 189 697
e 189 703
e 189 803
e 189 893
e 190 278
e 190 322
e 190 419
e 190 512
e 190 555
e 190 565
e 190 569
e 190 661
e 190 678
e 190 765
e 190 808
e 190 855
e 190 893
e 190 894
e 190 925
e 190 999
e 191 270
e 191 276
e 191 282
e 191 292
e 191 306
e 191 439
e 191 458
e 191 484
e 191 511
e 191 731
e 191 739
e 191 784
e 191 840
e 191 858
e 191 901
e 191 909
e 191 912
e 191 920
e 191 932
e 191 938
e 191 946
e 191 968
e 191 973
e 192 257
e 192 276
e 192 293
e 192 306
e 192 328
e 192 351
e 192 394
e 192 434
e 192 447
e 192 540
e 192 582
e 192 592
e 192 603
e 192 609
e 192 618
e 192 658
e 192 659
e 192 672
e 192 763
e 192 765
e 192 890
e 192 892
e 192 911
e 192 975
e 193 273
e 193 285
e 193 299
e 193 363
e 193 371
e 193 417
e 193 449
e 193 475
e 193 486
e 193 510
e 193 541
e 193 615
e 193 622
e 193 754
e 193 832
e 193 901
e 193 947
e 194 430
e 194 461
e 194 485
e 194 495
e 194 502
e 194 515
e 194 545
e 194 592
e 194 648
e 194 729
e 194 755
e 194 772
e 194 803
e 194 848
e 194 905
e 194 922
e 195 261
e 195 306
e 195 381
e 195 406
e 195 409
e 195 492
e 195 540
e 195 542
e 195 560
e 195 600
e 195 608
e 195 639
e 195 680
e 195 697
e 195 756
e 195 762
e 195 783
e 195 808
e 195 827
e 195 828
e 195 843
e 195 929
e 195 953
e 195 964
e 195 982
e 196 260
e 196 262
e 196 276
e 196 281
e 196 323
e 196 332
e 196 365
e 196 381
e 196 524
e 196 543
e 196 550
e 196 571
e 196 671
e 196 674
e 196 686
e 196 689
e 196 697
e 196 706
e 196 727
e 196 758
e 196 798
e 196 801
e 196 839
e 196 843
e 196 845
e 196 879
e 196 916
e 197 255
e 197 323
e 197 334
e 197 347
e 197 385
e 197 406
e 197 449
e 197 451
e 197 459
e 197 479
e 197 483
e 197 500
e 197 522
e 197 532
e 197 566
e 197 605
e 197 607
e 197 625
e 197 644
e 197 647
e 197 698
e 197 735
e 197 746
e 197 759
e 197 796
e 197 826
e 197 829
e 197 868
e 197 895
e 197 912
e 197 959
e 197 976
e 197 994
e 197 998
e 198 327
e 198 367
e 198 368
e 198 387
e 198 398
e 198 406
e 198 415
e 198 427
e 198 435
e 198 443
e 198 463
e 198 531
e 198 535
e 198 552
e 198 589
e 198 597
e 198 608
e 198 659
e 198 737
e 198 746
e 198 774
e 198 794
e 198 811
e 198 812
e 198 820
e 198 831
e 198 884
e 198 932
e 198 989
e 199 283
e 199 284
e 199 349
e 199 368
e 199 386
e 199 439
e 199 495
e 199 538
e 199 554
e 199 650
e 199 840
e 199 907
e 199 979
e 199 980
e 199 992
e 200 297
e 200 303
e 200 383
e 200 416
e 200 419
e 200 481
e 200 493
e 200 522
e 200 693
e 200 706
e 200 723
e 200 787
e 200 797
e 200 815
e 200 883
e 200 961
e 200 994
e 201 251
e 201 252
e 201 267
e 201 277
e 201 350
e 201 372
e 201 387
e 201 418
e 201 463
e 201 625
e 201 635
e 201 679
e 201 719
e 201 724
e 201 741
e 201 793
e 201 838
e 201 844
e 201 856
e 201 875
e 201 921
e 201 929
e 201 947
e 202 259
e 202 272
e 202 291
e 202 294
e 202 326
e 202 381
e 202 391
e 202 429
e 202 453
e 202 484
e 202 487
e 202 507
e 202 517
e 202 609
e 202 615
e 202 678
e 202 686
e 202 738
e 202 792
e 202 824
e 202 827
e 202 838
e 202 860
e 202 882
e 202 888
e 202 997
e 203 257
e 203 295
e 203 314
e 203 330
e 203 360
e 203 403
e 203 422
e 203 438
e 203 440
e 203 458
e 203 486
e 203 523
e 203 525
e 203 556
e 203 573
e 203 643
e 203 697
e 203 714
e 203 733
e 203 739
e 203 751
e 203 762
e 203 870
e 203 882
e 203 895
e 203 928
e 203 938
e 203 942
e 203 955
e 203 996
e 204 280
e 204 304
e 204 321
e 204 322
e 204 375
e 204 396
e 204 407
e 204 461
e 204 464
e 204 471
e 204 529
e 204 574
e 204 586
e 204 606
e 204 624
e 204 694
e 204 703
e 204 732
e 204 807
e 204 817
e 204 878
e 204 961
e 204 991
e 205 254
e 205 271
e 205 316
e 205 383
e 205 429
e 205 452
e 205 479
e 205 514
e 205 533
e 205 541
e 205 551
e 205 557
e 205 558
e 205 591
e 205 627
e 205 641
e 205 686
e 205 700
e 205 773
e 205 775
e 205 852
e 205 865
e 205 889
e 205 920
e 205 930
e 205 979
e 206 296
e 206 310
e 206 316
e 206 328
e 206 337
e 206 356
e 206 420
e 206 443
e 206 481
e 206 528
e 206 587
e 206 603
e 206 649
e 206 724
e 206 740
e 206 760
e 206 768
e 206 799
e 206 806
e 206 827
e 206 835
e 206 862
e 206 878
e 206 892
e 206 893
e 206 903
e 206 921
e 206 927
e 207 294
e 207 339
e 207 368
e 207 378
e 207 395
e 207 399
e 207 409
e 207 411
e 207 432
e 207 451
e 207 521
e 207 538
e 207 573
e 207 604
e 207 636
e 207 698
e 207 744
e 207 763
e 207 788
e 207 809
e 207 822
e 207 866
e 207 869
e 207 894
e 207 895
e 207 914
e 207 952
e 207 995
e 208 274
e 208 275
e 208 305
e 208 316
e 208 326
e 208 330
e 208 343
e 208 379
e 208 410
e 208 432
e 208 435
e 208 529
e 208 573
e 208 608
e 208 613
e 208 622
e 208 643
e 208 663
e 208 727
e 208 743
e 208 750
e 208 765
e 208 860
e 208 900
e 208 949
e 208 990
e 208 992
e 209 262
e 209 264
e 209 266
e 209 332
e 209 345
e 209 385
e 209 454
e 209 504
e 209 525
e 209 550
e 209 608
e 209 665
e 209 683
e 209 693
e 209 718
e 209 820
e 209 852
e 209 861
e 209 874
e 209 899
e 209 900
e 209 902
e 209 929
e 209 967
e 210 322
e 210 378
e 210 409
e 210 501
e 210 522
e 210 530
e 210 548
e 210 595
e 210 600
e 210 638
e 210 644
e 210 655
e 210 667
e 210 829
e 210 841
e 210 886
e 210 928
e 210 938
e 210 946
e 211 319
e 211 372
e 211 374
e 211 375
e 211 393
e 211 453
e 211 565
e 211 591
e 211 621
e 211 659
e 211 665
e 211 687
e 211 700
e 211 704
e 211 716
e 211 720
e 211 733
e 211 749
e 211 815
e 211 898
e 211 921
e 211 951
e 212 261
e 212 295
e 212 349
e 212 350
e 212 352
e 212 371
e 212 376
e 212 445
e 212 508
e 212 527
e 212 534
e 212 615
e 212 630
e 212 632
e 212 642
e 212 748
e 212 750
e 212 792
e 212 795
e 212 819
e 212 828
e 212 843
e 212 855
e 212 859
e 212 862
e 212 863
e 212 883
e 212 891
e 212 936
e 212 947
e 213 300
e 213 350
e 213 376
e 213 459
e 213 463
e 213 472
e 213 477
e 213 532
e 213 580
e 213 680
e 213 688
e 213 746
e 213 766
e 213 796
e 213 798
e 213 848
e 213 856
e 213 879
e 213 886
e 213 901
e 213 946
e 214 273
e 214 314
e 214 339
e 214 375
e 214 397
e 214 434
e 214 439
e 214 449
e 214 474
e 214 542
e 214 545
e 214 567
e 214 572
e 214 599
e 214 637
e 214 652
e 214 730
e 214 741
e 214 786
e 214 789
e 214 800
e 214 817
e 214 946
e 215 333
e 215 346
e 215 358
e 215 469
e 215 497
e 215 583
e 215 626
e 215 638
e 215 659
e 215 764
e 215 783
e 215 852
e 215 886
e 215 899
e 215 916
e 215 921
e 215 966
e 215 983
e 215 988
e 216 251
e 216 264
e 216 266
e 216 295
e 216 305
e 216 358
e 216 446
e 216 581
e 216 583
e 216 639
e 216 661
e 216 698
e 216 751
e 216 783
e 216 788
e 216 808
e 216 812
e 216 814
e 216 840
e 216 847
e 216 936
e 216 939
e 216 971
e 216 981
e 216 997
e 217 282
e 217 288
e 217 306
e 217 357
e 217 391
e 217 455
e 217 483
e 217 509
e 217 537
e 217 558
e 217 610
e 217 631
e 217 657
e 217 659
e 217 667
e 217 676
e 217 698
e 217 739
e 217 762
e 217 802
e 217 811
e 217 850
e 217 900
e 217 954
e 217 971
e 217 997
e 218 264
e 218 288
e 218 298
e 218 305
e 218 367
e 218 398
e 218 414
e 218 451
e 218 489
e 218 495
e 218 523
e 218 625
e 218 626
e 218 666
e 218 685
e 218 731
e 218 774
e 218 796
e 218 852
e 218 865
e 218 928
e 218 940
e 218 991
e 219 267
e 219 277
e 219 288
e 219 338
e 219 343
e 219 344
e 219 381
e 219 386
e 219 472
e 219 519
e 219 611
e 219 684
e 219 693
e 219 734
e 219 762
e 219 834
e 219 862
e 219 884
e 219 922
e 219 951
e 219 998
e 220 262
e 220 281
e 220 354
e 220 369
e 220 413
e 220 444
e 220 490
e 220 594
e 220 608
e 220 690
e 220 700
e 220 792
e 220 803
e 220 893
e 220 924
e 220 961
e 221 273
e 221 330
e 221 406
e 221 413
e 221 432
e 221 437
e 221 460
e 221 557
e 221 568
e 221 637
e 221 643
e 221 668
e 221 688
e 221 721
e 221 749
e 221 816
e 221 838
e 221 861
e 221 884
e 221 937
e 221 974
e 221 978
e 222 255
e 222 284
e 222 405
e 222 415
e 222 458
e 222 471
e 222 488
e 222 553
e 222 568
e 222 583
e 222 623
e 222 683
e 222 698
e 222 747
e 222 751
e 222 806
e 222 909
e 222 911
e 222 939
e 222 975
e 222 985
e 223 280
e 223 324
e 223 327
e 223 336
e 223 339
e 223 350
e 223 367
e 223 371
e 223 414
e 223 473
e 223 499
e 223 503
e 223 526
e 223 531
e 223 587
e 223 605
e 223 633
e 223 645
e 223 680
e 223 705
e 223 726
e 223 790
e 223 819
e 223 832
e 223 834
e 223 835
e 223 855
e 223 866
e 223 934
e 223 950
e 224 319
e 224 345
e 224 411
e 224 423
e 224 433
e 224 455
e 224 503
e 224 526
e 224 547
e 224 549
e 224 569
e 224 627
e 224 654
e 224 680
e 224 744
e 224 769
e 224 794
e 224 816
e 224 817
e 224 844
e 224 892
e 224 904
e 224 920
e 225 258
e 225 281
e 225 304
e 225 329
e 225 360
e 225 376
e 225 381
e 225 419
e 225 430
e 225 439
e 225 441
e 225 625
e 225 723
e 225 747
e 225 825
e 225 835
e 225 868
e 225 912
e 225 923
e 225 947
e 225 965
e 225 982
e 226 288
e 226 315
e 226 336
e 226 357
e 226 379
e 226 441
e 226 464
e 226 482
e 226 540
e 226 588
e 226 611
e 226 655
e 226 660
e 226 744
e 226 759
e 226 893
e 226 908
e 226 949
e 226 961
e 227 270
e 227 338
e 227 432
e 227 435
e 227 451
e 227 484
e 227 568
e 227 577
e 227 615
e 227 660
e 227 779
e 227 790
e 227 823
e 227 852
e 227 917
e 227 958
e 227 962
e 227 997
e 228 251
e 228 288
e 228 331
e 228 428
e 228 486
e 228 539
e 228 567
e 228 568
e 228 574
e 228 584
e 228 587
e 228 612
e 228 667
e 228 723
e 228 780
e 228 788
e 228 804
e 228 817
e 228 841
e 228 914
e 228 931
e 228 968
e 228 972
e 229 268
e 229 275
e 229 285
e 229 320
e 229 461
e 229 475
e 229 588
e 229 601
e 229 603
e 229 637
e 229 676
e 229 857
e 229 882
e 229 996
e 230 261
e 230 269
e 230 272
e 230 278
e 230 301
e 230 318
e 230 327
e 230 347
e 230 360
e 230 405
e 230 416
e 230 437
e 230 465
e 230 467
e 230 496
e 230 530
e 230 583
e 230 627
e 230 640
e 230 642
e 230 672
e 230 676
e 230 697
e 230 703
e 230 743
e 230 756
e 230 787
e 230 810
e 230 825
e 230 900
e 230 905
e 230 923
e 230 971
e 231 304
e 231 339
e 231 340
e 231 353
e 231 391
e 231 402
e 231 405
e 231 448
e 231 479
e 231 505
e 231 543
e 231 634
e 231 646
e 231 686
e 231 703
e 231 714
e 231 767
e 231 860
e 231 919
e 231 942
e 231 949
e 231 957
e 231 959
e 231 972
e 231 984
e 232 306
e 232 307
e 232 340
e 232 347
e 232 377
e 232 416
e 232 480
e 232 494
e 232 522
e 232 526
e 232 554
e 232 576
e 232 614
e 232 669
e 232 763
e 232 868
e 232 890
e 232 911
e 233 317
e 233 319
e 233 335
e 233 356
e 233 377
e 233 389
e 233 405
e 233 412
e 233 425
e 233 442
e 233 457
e 233 490
e 233 525
e 233 533
e 233 547
e 233 590
e 233 624
e 233 640
e 233 699
e 233 744
e 233 761
e 233 812
e 233 842
e 233 846
e 233 850
e 233 855
e 233 892
e 233 908
e 233 1000
e 234 251
e 234 315
e 234 327
e 234 393
e 234 451
e 234 468
e 234 569
e 234 585
e 234 594
e 234 608
e 234 619
e 234 624
e 234 659
e 234 787
e 234 906
e 234 934
e 234 940
e 234 945
e 234 955
e 234 967
e 234 969
e 234 985
e 235 263
e 235 290
e 235 296
e 235 323
e 235 353
e 235 368
e 235 385
e 235 465
e 235 489
e 235 492
e 235 530
e 235 571
e 235 587
e 235 678
e 235 702
e 235 714
e 235 812
e 235 827
e 235 909
e 236 283
e 236 303
e 236 356
e 236 400
e 236 410
e 236 422
e 236 433
e 236 525
e 236 561
e 236 564
e 236 653
e 236 665
e 236 740
e 236 758
e 236 771
e 236 784
e 236 830
e 236 930
e 237 303
e 237 320
e 237 337
e 237 359
e 237 392
e 237 393
e 237 421
e 237 454
e 237 461
e 237 491
e 237 521
e 237 568
e 237 658
e 237 687
e 237 689
e 237 734
e 237 840
e 237 852
e 237 921
e 237 929
e 237 942
e 237 969
e 238 299
e 238 304
e 238 315
e 238 337
e 238 354
e 238 363
e 238 380
e 238 448
e 238 539
e 238 558
e 238 581
e 238 598
e 238 645
e 238 674
e 238 697
e 238 699
e 238 787
e 238 798
e 238 893
e 238 896
e 238 918
e 238 926
e 238 970
e 239 252
e 239 255
e 239 333
e 239 344
e 239 355
e 239 409
e 239 636
e 239 656
e 239 664
e 240 312
e 240 326
e 240 361
e 240 374
e 240 380
e 240 425
e 240 484
e 240 521
e 240 538
e 240 541
e 240 599
e 240 602
e 240 609
e 240 610
e 240 628
e 240 634
e 240 660
e 240 663
e 240 686
e 240 700
e 240 712
e 240 716
e 240 730
e 240 731
e 240 732
e 240 767
e 240 788
e 240 806
e 240 827
e 240 894
e 240 904
e 240 905
e 240 914
e 240 925
e 240 952
e 241 259
e 241 312
e 241 323
e 241 348
e 241 437
e 241 491
e 241 524
e 241 525
e 241 527
e 241 540
e 241 544
e 241 582
e 241 625
e 241 636
e 241 664
e 241 671
e 241 674
e 241 682
e 241 690
e 241 695
e 241 768
e 241 781
e 241 786
e 241 800
e 241 850
e 241 852
e 241 908
e 241 980
e 242 269
e 242 287
e 242 296
e 242 383
e 242 391
e 242 427
e 242 431
e 242 444
e 242 467
e 242 541
e 242 654
e 242 655
e 242 679
e 242 681
e 242 747
e 242 787
e 242 918
e 242 923
e 242 935
e 242 956
e 242 960
e 242 998
e 243 269
e 243 273
e 243 286
e 243 349
e 243 362
e 243 406
e 243 419
e 243 474
e 243 481
e 243 494
e 243 535
e 243 572
e 243 608
e 243 625
e 243 656
e 243 687
e 243 714
e 243 728
e 243 789
e 243 800
e 243 817
e 243 823
e 243 829
e 243 861
e 243 868
e 243 949
e 243 959
e 243 981
e 243 990
e 244 262
e 244 316
e 244 358
e 244 366
e 244 451
e 244 473
e 244 476
e 244 491
e 244 542
e 244 568
e 244 589
e 244 609
e 244 668
e 244 757
e 244 791
e 244 803
e 244 811
e 244 834
e 244 841
e 244 852
e 244 909
e 244 922
e 244 956
e 244 966
e 244 980
e 244 997
e 245 269
e 245 296
e 245 351
e 245 371
e 245 374
e 245 387
e 245 454
e 245 460
e 245 533
e 245 549
e 245 594
e 245 688
e 245 711
e 245 762
e 245 772
e 245 775
e 245 857
e 245 863
e 245 905
e 245 910
e 245 923
e 246 348
e 246 368
e 246 396
e 246 398
e 246 419
e 246 427
e 246 433
e 246 512
e 246 601
e 246 616
e 246 635
e 246 687
e 246 718
e 246 723
e 246 786
e 246 790
e 246 862
e 246 887
e 246 889
e 247 346
e 247 374
e 247 381
e 247 409
e 247 431
e 247 455
e 247 457
e 247 466
e 247 489
e 247 497
e 247 499
e 247 528
e 247 558
e 247 608
e 247 624
e 247 628
e 247 632
e 247 674
e 247 711
e 247 771
e 247 772
e 247 796
e 247 800
e 247 906
e 247 910
e 247 957
e 248 270
e 248 305
e 248 328
e 248 405
e 248 458
e 248 467
e 248 522
e 248 552
e 248 608
e 248 656
e 248 672
e 248 732
e 248 744
e 248 754
e 248 774
e 248 789
e 248 832
e 248 846
e 248 863
e 248 906
e 249 258
e 249 277
e 249 283
e 249 370
e 249 375
e 249 483
e 249 536
e 249 538
e 249 552
e 249 581
e 249 689
e 249 748
e 249 926
e 249 966
e 249 975
e 250 349
e 250 364
e 250 397
e 250 453
e 250 525
e 250 528
e 250 537
e 250 546
e 250 572
e 250 595
e 250 671
e 250 681
e 250 686
e 250 711
e 250 714
e 250 726
e 250 817
e 250 838
e 250 887
e 250 920
e 250 954
e 250 994
