p edge 1000 1861
e 1 339
e 1 348
e 1 385
e 1 835
e 1 861
e 1 973
e 2 326
e 2 341
e 2 373
e 2 561
e 2 745
e 2 776
e 2 835
e 2 847
e 2 945
e 2 948
e 3 365
e 3 366
e 3 419
e 3 432
e 3 589
e 3 635
e 3 649
e 3 719
e 3 808
e 3 871
e 3 920
e 4 714
e 4 716
e 4 986
e 5 527
e 5 547
e 5 580
e 5 675
e 5 755
e 6 268
e 6 272
e 6 301
e 6 404
e 6 425
e 6 784
e 6 973
e 7 290
e 7 306
e 7 461
e 7 520
e 7 634
e 7 694
e 7 749
e 8 539
e 8 626
e 8 662
e 8 682
e 8 791
e 8 839
e 9 317
e 9 342
e 9 435
e 9 539
e 9 866
e 10 595
e 10 715
e 10 724
e 10 803
e 10 807
e 10 985
e 10 991
e 11 254
e 11 255
e 11 375
e 11 443
e 11 531
e 11 648
e 11 652
e 11 856
e 12 262
e 12 452
e 12 498
e 12 896
e 12 923
e 13 340
e 13 425
e 13 673
e 13 697
e 13 718
e 13 810
e 13 948
e 14 263
e 14 390
e 14 454
e 14 470
e 14 512
e 14 646
e 14 786
e 15 263
e 15 609
e 15 796
e 15 879
e 15 904
e 15 981
e 15 982
e 16 296
e 16 309
e 16 695
e 16 816
e 17 274
e 17 286
e 17 377
e 17 484
e 17 623
e 17 645
e 17 767
e 17 786
e 17 979
e 18 537
e 18 565
e 18 695
e 18 728
e 18 908
e 19 452
e 19 523
e 19 616
e 19 772
e 19 785
e 20 259
e 20 406
e 20 433
e 20 551
e 20 573
e 20 845
e 21 385
e 21 409
e 21 458
e 21 548
e 21 578
e 21 581
e 21 625
e 21 793
e 22 351
e 22 427
e 22 658
e 22 695
e 22 836
e 23 575
e 23 639
e 23 657
e 23 752
e 23 907
e 23 916
e 24 346
e 24 359
e 24 405
e 24 486
e 24 499
e 25 354
e 25 385
e 25 494
e 25 546
e 25 552
e 25 572
e 25 580
e 25 902
e 25 984
e 26 262
e 26 307
e 26 353
e 26 611
e 26 731
e 26 917
e 27 262
e 27 303
e 27 414
e 27 690
e 27 778
e 27 850
e 28 365
e 28 370
e 28 410
e 28 420
e 28 507
e 28 536
e 28 643
e 28 654
e 29 283
e 29 519
e 29 529
e 29 566
e 29 641
e 29 777
e 29 823
e 29 928
e 29 994
e 30 276
e 30 336
e 30 349
e 30 438
e 30 442
e 30 473
e 30 501
e 30 670
e 30 700
e 30 775
e 30 777
e 30 835
e 31 313
e 31 483
e 31 637
e 31 811
e 31 877
e 32 284
e 32 302
e 32 800
e 32 975
e 33 268
e 33 521
e 33 567
e 33 583
e 33 585
e 33 603
e 33 665
e 33 767
e 33 823
e 33 836
e 33 899
e 33 906
e 33 944
e 34 261
e 34 431
e 34 440
e 34 584
e 34 849
e 34 939
e 35 347
e 35 786
e 35 796
e 35 807
e 35 816
e 35 884
e 35 899
e 36 273
e 36 395
e 36 419
e 36 552
e 36 576
e 36 789
e 36 841
e 36 933
e 37 463
e 37 606
e 37 611
e 37 691
e 37 766
e 37 907
e 37 951
e 38 275
e 38 277
e 38 294
e 38 581
e 38 599
e 38 621
e 38 628
e 38 697
e 38 796
e 38 852
e 39 393
e 39 504
e 39 575
e 39 671
e 40 373
e 40 508
e 40 568
e 40 612
e 40 691
e 40 918
e 40 986
e 41 259
e 41 489
e 41 508
e 41 519
e 41 562
e 41 565
e 41 621
e 41 686
e 41 728
e 41 772
e 41 812
e 41 954
e 42 309
e 42 406
e 42 410
e 42 433
e 42 507
e 42 545
e 42 554
e 42 683
e 42 858
e 42 881
e 42 918
e 42 935
e 43 304
e 43 583
e 44 333
e 44 335
e 44 595
e 44 664
e 44 757
e 44 765
e 44 791
e 44 982
e 45 339
e 45 357
e 45 445
e 45 600
e 45 764
e 45 856
e 45 967
e 45 972
e 46 956
e 46 991
e 47 260
e 47 309
e 47 549
e 47 583
e 47 717
e 47 741
e 47 911
e 47 940
e 48 417
e 48 540
e 48 720
e 48 734
e 48 840
e 49 469
e 49 562
e 49 679
e 49 695
e 49 730
e 50 295
e 50 452
e 50 467
e 50 526
e 50 561
e 50 568
e 50 615
e 50 789
e 50 851
e 51 317
e 51 412
e 51 465
e 51 470
e 51 520
e 51 604
e 51 873
e 52 285
e 52 291
e 52 292
e 52 414
e 52 527
e 52 643
e 52 671
e 52 741
e 52 757
e 52 814
e 52 827
e 53 496
e 53 538
e 53 999
e 54 265
e 54 305
e 54 429
e 54 439
e 54 458
e 54 585
e 54 625
e 54 647
e 54 693
e 54 705
e 54 867
e 54 876
e 54 912
e 54 953
e 54 969
e 55 423
e 55 466
e 55 787
e 55 856
e 55 860
e 56 267
e 56 305
e 56 412
e 57 426
e 57 486
e 57 489
e 57 594
e 57 683
e 57 744
e 57 853
e 57 954
e 58 275
e 58 467
e 58 660
e 58 684
e 58 723
e 58 783
e 58 807
e 58 830
e 58 900
e 58 950
e 59 398
e 59 557
e 59 720
e 59 737
e 59 926
e 60 251
e 60 505
e 60 846
e 60 975
e 61 319
e 61 344
e 61 392
e 61 432
e 61 506
e 61 542
e 61 565
e 61 601
e 61 710
e 61 719
e 61 754
e 61 764
e 61 815
e 61 890
e 61 984
e 62 871
e 62 887
e 62 965
e 63 598
e 63 645
e 63 739
e 63 746
e 64 261
e 64 375
e 64 426
e 64 538
e 64 604
e 64 638
e 65 272
e 65 529
e 65 552
e 65 647
e 66 284
e 66 408
e 66 626
e 66 837
e 66 853
e 66 855
e 67 251
e 67 294
e 67 422
e 67 645
e 67 962
e 68 260
e 68 286
e 68 304
e 68 545
e 68 555
e 68 644
e 68 708
e 68 850
e 69 257
e 69 340
e 69 423
e 69 461
e 69 543
e 69 550
e 69 605
e 69 972
e 70 267
e 70 433
e 70 486
e 70 559
e 70 616
e 70 670
e 70 680
e 70 705
e 70 952
e 71 300
e 71 328
e 71 521
e 71 639
e 71 670
e 71 715
e 71 788
e 71 810
e 71 862
e 72 257
e 72 310
e 72 358
e 72 412
e 72 489
e 72 529
e 72 530
e 72 757
e 72 819
e 72 912
e 72 964
e 73 725
e 73 854
e 73 880
e 73 915
e 74 569
e 74 663
e 74 676
e 74 749
e 74 756
e 74 762
e 75 393
e 75 406
e 75 623
e 75 688
e 75 697
e 75 748
e 75 767
e 75 783
e 76 251
e 76 442
e 76 466
e 76 516
e 76 793
e 76 850
e 76 918
e 76 919
e 76 941
e 77 306
e 77 347
e 77 453
e 77 558
e 77 884
e 77 918
e 77 944
e 78 257
e 78 263
e 78 369
e 78 436
e 78 631
e 78 719
e 78 744
e 78 833
e 78 905
e 78 930
e 79 469
e 79 486
e 79 665
e 79 689
e 79 708
e 79 716
e 79 807
e 79 945
e 80 295
e 80 379
e 80 445
e 80 697
e 81 366
e 81 372
e 81 420
e 81 495
e 81 633
e 81 685
e 81 959
e 82 272
e 82 392
e 82 493
e 82 499
e 82 525
e 82 548
e 82 789
e 82 799
e 82 922
e 82 945
e 83 356
e 83 367
e 83 461
e 83 462
e 83 594
e 83 654
e 83 704
e 83 822
e 84 301
e 84 369
e 84 374
e 84 430
e 84 702
e 84 748
e 84 754
e 84 807
e 85 448
e 85 647
e 85 778
e 85 783
e 85 942
e 86 252
e 86 390
e 86 569
e 86 817
e 86 840
e 87 468
e 87 509
e 87 599
e 87 637
e 87 679
e 87 730
e 87 792
e 88 308
e 88 415
e 88 516
e 88 745
e 89 263
e 89 267
e 89 294
e 89 365
e 89 594
e 89 609
e 89 758
e 89 766
e 89 839
e 89 858
e 89 876
e 89 902
e 89 911
e 90 360
e 90 371
e 90 609
e 90 620
e 90 718
e 90 829
e 90 892
e 90 985
e 91 284
e 91 424
e 91 438
e 91 538
e 91 554
e 91 629
e 91 700
e 91 726
e 91 763
e 91 857
e 91 866
e 92 312
e 92 406
e 92 470
e 92 543
e 92 559
e 92 605
e 92 614
e 92 620
e 92 679
e 92 692
e 92 730
e 92 791
e 92 813
e 92 846
e 92 877
e 92 882
e 92 915
e 92 917
e 93 402
e 93 619
e 93 629
e 93 640
e 93 656
e 93 661
e 93 667
e 94 261
e 94 286
e 94 313
e 94 425
e 94 843
e 95 256
e 95 365
e 95 487
e 95 557
e 95 579
e 95 632
e 95 698
e 95 711
e 96 369
e 96 375
e 96 509
e 96 635
e 96 651
e 96 689
e 96 806
e 96 935
e 96 962
e 97 426
e 97 445
e 97 617
e 97 675
e 97 712
e 97 726
e 97 744
e 97 811
e 97 923
e 98 258
e 98 340
e 98 345
e 98 391
e 98 490
e 98 720
e 98 852
e 99 258
e 99 375
e 99 431
e 99 513
e 99 591
e 99 632
e 99 664
e 99 676
e 99 728
e 99 781
e 99 967
e 100 287
e 100 407
e 100 556
e 100 786
e 100 845
e 100 847
e 100 863
e 100 979
e 101 254
e 101 362
e 101 552
e 101 660
e 101 693
e 101 726
e 101 832
e 101 911
e 101 977
e 102 728
e 102 933
e 102 971
e 102 974
e 103 318
e 103 455
e 103 557
e 103 626
e 103 665
e 103 749
e 103 796
e 103 888
e 103 901
e 104 322
e 104 419
e 104 490
e 104 501
e 104 504
e 104 543
e 104 712
e 104 752
e 104 785
e 105 274
e 105 318
e 105 352
e 105 372
e 105 388
e 105 512
e 105 579
e 105 717
e 105 740
e 105 907
e 106 349
e 106 405
e 106 461
e 106 481
e 106 519
e 106 652
e 106 655
e 106 731
e 106 754
e 106 778
e 106 913
e 106 938
e 106 998
e 107 885
e 107 989
e 108 352
e 108 442
e 108 488
e 108 547
e 108 663
e 108 723
e 108 921
e 108 969
e 109 313
e 109 319
e 109 472
e 109 483
e 109 597
e 109 635
e 110 382
e 110 396
e 110 420
e 110 491
e 110 556
e 110 570
e 110 632
e 110 674
e 110 740
e 110 834
e 110 953
e 111 269
e 111 285
e 111 572
e 111 763
e 111 927
e 112 312
e 112 390
e 112 470
e 112 579
e 112 632
e 112 659
e 112 829
e 112 844
e 112 866
e 112 918
e 113 422
e 113 465
e 113 534
e 113 535
e 113 622
e 113 756
e 114 281
e 114 347
e 114 358
e 114 373
e 114 586
e 114 587
e 114 590
e 114 696
e 114 752
e 114 774
e 114 827
e 115 396
e 115 553
e 115 582
e 115 596
e 115 601
e 115 625
e 115 740
e 115 910
e 116 301
e 116 762
e 116 926
e 116 945
e 116 980
e 117 355
e 117 478
e 117 481
e 117 709
e 117 715
e 117 722
e 117 806
e 117 845
e 117 915
e 117 942
e 118 470
e 118 538
e 118 539
e 118 698
e 118 722
e 118 760
e 118 864
e 118 939
e 118 959
e 118 977
e 119 675
e 119 694
e 119 822
e 119 883
e 119 974
e 120 251
e 120 336
e 120 766
e 120 807
e 120 907
e 121 322
e 121 332
e 121 342
e 121 391
e 121 404
e 121 406
e 121 417
e 121 497
e 121 657
e 121 669
e 121 736
e 121 754
e 122 261
e 122 351
e 122 553
e 122 787
e 123 423
e 123 531
e 123 620
e 123 670
e 123 760
e 123 790
e 123 816
e 124 375
e 124 490
e 124 520
e 124 622
e 124 660
e 124 804
e 124 950
e 125 300
e 125 334
e 125 729
e 125 758
e 125 816
e 125 996
e 126 324
e 126 365
e 126 370
e 126 582
e 126 607
e 126 688
e 126 789
e 126 825
e 126 843
e 126 882
e 126 929
e 127 258
e 127 319
e 127 359
e 127 388
e 127 489
e 127 526
e 127 585
e 127 765
e 127 851
e 127 882
e 127 906
e 127 958
e 128 391
e 128 435
e 128 500
e 128 501
e 128 548
e 128 571
e 128 675
e 128 768
e 128 812
e 128 820
e 128 843
e 128 986
e 129 401
e 129 445
e 129 452
e 129 488
e 129 510
e 129 591
e 129 709
e 129 717
e 129 737
e 129 903
e 130 277
e 130 503
e 130 568
e 130 834
e 130 934
e 130 961
e 131 407
e 131 686
e 131 765
e 131 832
e 131 852
e 131 887
e 131 992
e 132 323
e 132 359
e 132 483
e 132 782
e 132 912
e 133 354
e 133 402
e 133 474
e 133 550
e 133 615
e 133 675
e 133 756
e 133 774
e 133 875
e 134 257
e 134 324
e 134 355
e 134 405
e 134 601
e 134 777
e 134 783
e 134 881
e 134 896
e 134 949
e 135 526
e 135 543
e 135 561
e 135 621
e 135 717
e 135 899
e 136 267
e 136 395
e 136 578
e 136 712
e 136 829
e 136 841
e 137 595
e 137 678
e 137 698
e 137 742
e 137 764
e 138 371
e 138 437
e 138 725
e 138 826
e 138 911
e 139 288
e 139 363
e 139 389
e 139 557
e 139 676
e 139 702
e 139 723
e 139 732
e 140 336
e 140 426
e 140 441
e 140 494
e 140 530
e 140 583
e 140 635
e 140 673
e 140 876
e 140 920
e 141 319
e 141 435
e 141 534
e 141 544
e 141 689
e 141 784
e 141 934
e 142 339
e 142 539
e 142 683
e 142 697
e 142 700
e 142 855
e 142 895
e 143 264
e 143 274
e 143 357
e 143 424
e 143 437
e 143 497
e 143 550
e 143 571
e 143 715
e 143 780
e 143 789
e 143 837
e 144 353
e 144 510
e 144 545
e 144 551
e 144 579
e 144 618
e 144 632
e 144 650
e 144 702
e 144 756
e 144 921
e 144 952
e 145 255
e 145 406
e 145 508
e 145 523
e 145 604
e 145 939
e 145 980
e 146 312
e 146 486
e 146 783
e 146 828
e 146 966
e 147 257
e 147 349
e 147 438
e 147 465
e 147 521
e 147 608
e 147 764
e 147 838
e 148 265
e 148 420
e 148 745
e 148 958
e 149 310
e 149 710
e 149 875
e 149 919
e 149 960
e 150 352
e 150 374
e 150 376
e 150 412
e 150 657
e 150 734
e 150 736
e 150 799
e 150 849
e 150 972
e 150 992
e 151 326
e 151 394
e 151 661
e 151 741
e 151 745
e 151 908
e 151 948
e 152 332
e 152 640
e 152 772
e 152 817
e 152 867
e 152 873
e 152 999
e 153 251
e 153 256
e 153 403
e 153 492
e 153 669
e 153 898
e 153 965
e 154 324
e 154 417
e 154 474
e 154 624
e 154 661
e 154 747
e 154 781
e 154 864
e 154 908
e 155 372
e 155 420
e 155 426
e 155 485
e 155 578
e 155 670
e 155 682
e 155 704
e 155 788
e 156 501
e 156 511
e 156 527
e 156 533
e 156 534
e 156 747
e 156 890
e 156 902
e 156 910
e 156 920
e 156 948
e 156 991
e 157 281
e 157 293
e 157 347
e 157 400
e 157 471
e 157 573
e 157 689
e 157 757
e 158 562
e 158 574
e 158 693
e 158 715
e 158 823
e 158 993
e 159 276
e 159 300
e 159 315
e 159 335
e 159 347
e 159 577
e 159 657
e 159 721
e 159 921
e 159 988
e 160 423
e 160 637
e 160 666
e 160 828
e 160 855
e 161 295
e 161 471
e 161 708
e 161 761
e 161 769
e 161 806
e 161 860
e 161 963
e 161 986
e 162 325
e 162 330
e 162 379
e 162 390
e 162 422
e 162 449
e 162 747
e 162 768
e 162 931
e 163 262
e 163 267
e 163 314
e 163 532
e 163 573
e 163 748
e 163 803
e 163 842
e 164 455
e 164 519
e 164 550
e 164 862
e 165 419
e 165 814
e 165 954
e 166 260
e 166 429
e 166 507
e 166 551
e 166 561
e 166 612
e 166 657
e 166 698
e 166 806
e 166 857
e 167 276
e 167 392
e 167 394
e 167 678
e 167 775
e 167 821
e 167 835
e 168 315
e 168 344
e 168 406
e 168 473
e 168 534
e 168 592
e 168 610
e 168 645
e 168 647
e 168 666
e 168 684
e 168 705
e 168 776
e 168 869
e 168 878
e 168 934
e 168 978
e 168 1000
e 169 294
e 169 313
e 169 340
e 169 390
e 169 491
e 169 537
e 169 727
e 169 765
e 169 775
e 169 812
e 170 257
e 170 440
e 170 686
e 170 854
e 170 983
e 171 276
e 171 302
e 171 306
e 171 465
e 171 588
e 171 602
e 171 690
e 171 747
e 171 915
e 171 923
e 171 974
e 172 400
e 172 476
e 172 481
e 172 732
e 172 823
e 172 843
e 172 861
e 172 872
e 172 930
e 173 251
e 173 617
e 173 835
e 173 921
e 174 398
e 174 530
e 174 767
e 174 884
e 175 259
e 175 284
e 175 296
e 175 324
e 175 349
e 175 378
e 175 455
e 175 679
e 175 683
e 175 795
e 175 936
e 175 965
e 176 347
e 176 368
e 176 519
e 176 830
e 176 880
e 176 923
e 176 991
e 177 285
e 177 318
e 177 345
e 177 422
e 177 478
e 177 512
e 177 996
e 178 488
e 178 565
e 178 720
e 178 889
e 178 895
e 178 945
e 178 962
e 179 486
e 179 543
e 179 641
e 179 663
e 179 689
e 179 859
e 179 903
e 179 932
e 179 956
e 179 965
e 180 355
e 180 428
e 180 518
e 180 538
e 180 642
e 180 834
e 180 835
e 180 843
e 180 940
e 180 952
e 181 469
e 182 301
e 182 313
e 182 707
e 182 764
e 182 798
e 183 464
e 183 487
e 183 718
e 183 730
e 183 978
e 184 388
e 184 637
e 184 690
e 184 721
e 184 822
e 184 983
e 185 380
e 185 504
e 185 690
e 185 701
e 185 732
e 185 931
e 186 267
e 186 392
e 186 482
e 186 506
e 186 582
e 186 617
e 186 797
e 186 841
e 186 874
e 187 370
e 187 390
e 187 437
e 187 510
e 187 571
e 187 656
e 187 808
e 187 860
e 188 581
e 188 684
e 188 771
e 188 853
e 188 964
e 189 287
e 189 294
e 189 429
e 189 526
e 189 553
e 189 583
e 189 595
e 189 795
e 189 874
e 189 922
e 190 325
e 190 392
e 190 427
e 190 545
e 190 620
e 190 647
e 190 714
e 190 780
e 190 912
e 190 950
e 191 261
e 191 445
e 191 473
e 191 494
e 191 559
e 191 690
e 191 752
e 191 757
e 191 790
e 191 794
e 191 898
e 191 943
e 191 978
e 192 322
e 192 344
e 192 820
e 192 828
e 192 921
e 193 268
e 193 430
e 193 475
e 193 558
e 193 607
e 193 704
e 193 739
e 193 766
e 193 876
e 193 879
e 193 920
e 193 931
e 194 281
e 194 301
e 194 409
e 194 495
e 194 624
e 194 636
e 194 659
e 194 695
e 194 752
e 194 893
e 194 922
e 195 480
e 195 537
e 195 548
e 195 645
e 195 713
e 195 759
e 195 840
e 195 886
e 195 936
e 196 251
e 196 310
e 196 441
e 196 540
e 196 549
e 196 741
e 196 840
e 196 850
e 196 902
e 196 998
e 197 312
e 197 573
e 197 736
e 197 742
e 197 946
e 197 984
e 198 293
e 198 364
e 198 417
e 198 675
e 198 689
e 198 790
e 199 341
e 199 402
e 199 604
e 199 690
e 199 780
e 199 783
e 199 947
e 200 270
e 200 439
e 200 494
e 200 774
e 200 886
e 200 888
e 201 321
e 201 327
e 201 392
e 201 527
e 201 598
e 201 669
e 201 871
e 202 263
e 202 742
e 202 769
e 202 991
e 203 397
e 203 498
e 203 558
e 203 591
e 203 743
e 203 796
e 203 832
e 203 836
e 203 860
e 204 261
e 204 296
e 204 516
e 204 554
e 204 729
e 204 747
e 204 842
e 204 850
e 204 877
e 205 430
e 205 524
e 205 532
e 205 578
e 205 622
e 205 635
e 205 773
e 205 791
e 205 794
e 206 278
e 206 292
e 206 347
e 206 439
e 206 738
e 206 886
e 206 996
e 207 256
e 207 360
e 207 520
e 207 633
e 207 710
e 207 809
e 207 884
e 208 293
e 208 354
e 208 531
e 208 824
e 208 853
e 208 902
e 209 278
e 209 395
e 209 592
e 209 610
e 209 767
e 209 876
e 209 941
e 210 331
e 210 348
e 210 708
e 210 852
e 210 983
e 211 277
e 211 544
e 211 881
e 211 957
e 211 982
e 212 417
e 212 439
e 212 492
e 212 595
e 212 616
e 212 729
e 212 747
e 212 827
e 212 843
e 212 898
e 213 359
e 213 432
e 213 465
e 213 543
e 213 647
e 213 659
e 213 673
e 213 782
e 213 927
e 214 380
e 214 410
e 214 526
e 214 548
e 214 741
e 214 815
e 214 849
e 215 317
e 215 416
e 215 441
e 215 519
e 215 755
e 215 829
e 215 887
e 215 940
e 216 550
e 216 576
e 216 689
e 216 742
e 216 748
e 216 841
e 216 853
e 217 298
e 217 365
e 217 532
e 217 603
e 217 629
e 217 916
e 217 987
e 218 644
e 218 788
e 219 298
e 219 336
e 219 381
e 219 399
e 219 549
e 219 693
e 219 758
e 220 763
e 220 861
e 220 927
e 220 973
e 221 330
e 221 335
e 221 403
e 221 405
e 221 406
e 221 760
e 221 761
e 222 272
e 222 343
e 222 458
e 222 473
e 222 566
e 222 600
e 222 727
e 222 733
e 222 781
e 222 888
e 222 928
e 223 256
e 223 267
e 223 283
e 223 366
e 223 371
e 223 378
e 223 586
e 223 594
e 223 869
e 224 262
e 224 338
e 224 497
e 224 779
e 224 899
e 225 448
e 225 488
e 225 504
e 225 792
e 225 904
e 225 905
e 225 979
e 226 420
e 226 430
e 226 651
e 226 710
e 226 793
e 226 870
e 226 899
e 227 261
e 227 499
e 227 592
e 227 608
e 227 760
e 227 953
e 227 971
e 228 406
e 228 414
e 228 487
e 228 838
e 228 907
e 229 331
e 229 355
e 229 526
e 229 737
e 229 803
e 230 336
e 230 437
e 230 563
e 230 571
e 230 683
e 230 774
e 230 912
e 231 309
e 231 322
e 231 394
e 231 445
e 231 514
e 231 609
e 231 742
e 232 372
e 232 434
e 232 449
e 232 453
e 232 481
e 232 685
e 232 954
e 232 963
e 232 983
e 233 342
e 233 396
e 233 543
e 233 569
e 233 743
e 233 756
e 233 975
e 234 299
e 234 308
e 234 310
e 234 320
e 234 609
e 234 656
e 234 892
e 234 909
e 234 915
e 234 987
e 235 591
e 235 701
e 235 822
e 235 898
e 235 955
e 236 292
e 236 345
e 236 529
e 236 597
e 236 667
e 236 686
e 236 751
e 236 897
e 237 312
e 237 690
e 237 743
e 237 795
e 237 907
e 238 393
e 238 586
e 238 822
e 238 875
e 238 984
e 239 394
e 239 431
e 239 517
e 239 533
e 239 701
e 239 761
e 239 887
e 240 255
e 240 262
e 240 347
e 240 380
e 240 454
e 240 521
e 240 671
e 240 690
e 241 286
e 241 335
e 241 374
e 241 534
e 241 605
e 241 632
e 241 676
e 241 677
e 241 721
e 241 743
e 241 856
e 242 270
e 242 353
e 242 380
e 242 543
e 242 772
e 242 796
e 242 875
e 243 504
e 243 858
e 243 866
e 243 998
e 244 418
e 244 421
e 244 452
e 244 532
e 244 816
e 244 861
e 244 938
e 245 260
e 245 559
e 245 745
e 245 781
e 245 806
e 245 856
e 245 866
e 245 987
e 246 674
e 246 690
e 246 726
e 246 874
e 247 394
e 247 412
e 247 668
e 247 742
e 247 782
e 247 853
e 247 938
e 248 421
e 248 429
e 248 755
e 248 832
e 248 860
e 248 876
e 249 414
e 249 542
e 249 675
e 249 704
e 249 732
e 249 884
e 249 891
e 249 908
e 250 254
e 250 349
e 250 458
e 250 588
e 250 620
e 250 813
e 250 951
