p edge 1000 5536
e 1 411
e 1 447
e 1 450
e 1 478
e 1 522
e 1 565
e 1 597
e 1 608
e 1 611
e 1 639
e 1 757
e 1 784
e 1 870
e 1 915
e 1 940
e 2 371
e 2 475
e 2 493
e 2 522
e 2 525
e 2 560
e 2 635
e 2 655
e 2 682
e 2 726
e 2 736
e 2 873
e 2 882
e 2 923
e 2 936
e 2 952
e 3 272
e 3 332
e 3 386
e 3 406
e 3 414
e 3 427
e 3 433
e 3 449
e 3 501
e 3 522
e 3 643
e 3 652
e 3 760
e 3 774
e 3 789
e 3 820
e 3 880
e 3 905
e 3 909
e 3 933
e 3 951
e 3 991
e 4 278
e 4 300
e 4 365
e 4 368
e 4 372
e 4 509
e 4 608
e 4 611
e 4 687
e 4 745
e 4 752
e 4 841
e 4 848
e 4 950
e 4 977
e 4 979
e 5 275
e 5 326
e 5 338
e 5 368
e 5 394
e 5 443
e 5 446
e 5 487
e 5 580
e 5 675
e 5 716
e 5 766
e 5 780
e 5 798
e 5 866
e 5 870
e 5 950
e 6 253
e 6 263
e 6 267
e 6 296
e 6 300
e 6 303
e 6 388
e 6 419
e 6 491
e 6 528
e 6 631
e 6 636
e 6 665
e 6 676
e 6 728
e 6 752
e 6 782
e 6 835
e 6 848
e 6 889
e 6 902
e 6 924
e 6 938
e 6 979
e 7 266
e 7 286
e 7 293
e 7 388
e 7 415
e 7 444
e 7 541
e 7 542
e 7 558
e 7 593
e 7 613
e 7 663
e 7 721
e 7 794
e 7 881
e 7 884
e 7 894
e 7 978
e 7 990
e 8 277
e 8 287
e 8 291
e 8 299
e 8 310
e 8 355
e 8 378
e 8 418
e 8 424
e 8 442
e 8 461
e 8 504
e 8 528
e 8 587
e 8 592
e 8 668
e 8 701
e 8 718
e 8 727
e 8 737
e 8 767
e 8 937
e 8 980
e 9 374
e 9 424
e 9 434
e 9 461
e 9 513
e 9 523
e 9 531
e 9 555
e 9 566
e 9 590
e 9 635
e 9 662
e 9 696
e 9 704
e 9 876
e 9 879
e 9 990
e 9 995
e 10 254
e 10 276
e 10 290
e 10 317
e 10 345
e 10 365
e 10 398
e 10 499
e 10 515
e 10 528
e 10 558
e 10 602
e 10 619
e 10 700
e 10 762
e 10 816
e 10 819
e 10 946
e 10 950
e 10 967
e 10 986
e 10 993
e 11 295
e 11 386
e 11 419
e 11 420
e 11 482
e 11 697
e 11 793
e 11 879
e 11 936
e 11 950
e 11 980
e 11 985
e 12 256
e 12 282
e 12 293
e 12 300
e 12 320
e 12 322
e 12 333
e 12 347
e 12 349
e 12 391
e 12 396
e 12 432
e 12 567
e 12 610
e 12 785
e 12 851
e 12 853
e 12 857
e 12 895
e 12 911
e 12 915
e 12 932
e 12 952
e 13 256
e 13 282
e 13 354
e 13 376
e 13 389
e 13 427
e 13 459
e 13 471
e 13 489
e 13 519
e 13 543
e 13 544
e 13 619
e 13 661
e 13 664
e 13 706
e 13 729
e 13 760
e 13 772
e 13 783
e 13 815
e 13 841
e 13 860
e 13 875
e 13 887
e 13 905
e 13 921
e 13 942
e 14 251
e 14 327
e 14 334
e 14 336
e 14 434
e 14 677
e 14 722
e 14 736
e 14 748
e 14 814
e 14 851
e 14 911
e 14 985
e 14 992
e 15 280
e 15 281
e 15 427
e 15 437
e 15 454
e 15 461
e 15 494
e 15 500
e 15 506
e 15 552
e 15 583
e 15 602
e 15 639
e 15 713
e 15 725
e 15 739
e 15 767
e 15 771
e 15 793
e 15 806
e 15 822
e 15 842
e 15 847
e 15 904
e 15 910
e 15 933
e 15 940
e 15 964
e 15 971
e 15 993
e 16 325
e 16 336
e 16 346
e 16 359
e 16 420
e 16 448
e 16 559
e 16 602
e 16 618
e 16 624
e 16 654
e 16 723
e 16 783
e 16 789
e 16 832
e 16 871
e 16 930
e 16 991
e 16 992
e 17 260
e 17 269
e 17 275
e 17 281
e 17 284
e 17 306
e 17 339
e 17 345
e 17 361
e 17 406
e 17 453
e 17 465
e 17 548
e 17 562
e 17 563
e 17 598
e 17 610
e 17 655
e 17 689
e 17 740
e 17 791
e 17 793
e 17 803
e 17 890
e 17 925
e 17 974
e 17 979
e 17 982
e 18 282
e 18 284
e 18 287
e 18 314
e 18 329
e 18 330
e 18 334
e 18 427
e 18 443
e 18 447
e 18 468
e 18 506
e 18 633
e 18 655
e 18 699
e 18 725
e 18 781
e 18 805
e 18 829
e 18 875
e 18 975
e 18 976
e 18 988
e 19 294
e 19 297
e 19 332
e 19 513
e 19 526
e 19 652
e 19 707
e 19 728
e 19 733
e 19 762
e 19 770
e 19 787
e 19 795
e 19 813
e 19 818
e 19 842
e 19 949
e 19 952
e 20 254
e 20 255
e 20 274
e 20 275
e 20 282
e 20 301
e 20 310
e 20 390
e 20 434
e 20 568
e 20 602
e 20 632
e 20 633
e 20 649
e 20 662
e 20 715
e 20 716
e 20 757
e 20 811
e 20 886
e 20 889
e 20 901
e 20 906
e 20 924
e 20 991
e 21 291
e 21 314
e 21 403
e 21 409
e 21 428
e 21 447
e 21 469
e 21 486
e 21 492
e 21 520
e 21 559
e 21 589
e 21 612
e 21 638
e 21 673
e 21 729
e 21 746
e 21 760
e 21 784
e 21 837
e 21 895
e 21 996
e 22 294
e 22 382
e 22 386
e 22 403
e 22 424
e 22 456
e 22 470
e 22 482
e 22 490
e 22 502
e 22 509
e 22 541
e 22 601
e 22 642
e 22 682
e 22 692
e 22 756
e 22 774
e 22 808
e 22 901
e 22 923
e 22 997
e 23 296
e 23 314
e 23 324
e 23 333
e 23 348
e 23 349
e 23 356
e 23 370
e 23 435
e 23 465
e 23 608
e 23 613
e 23 621
e 23 632
e 23 660
e 23 710
e 23 902
e 23 937
e 23 968
e 24 274
e 24 284
e 24 358
e 24 402
e 24 423
e 24 430
e 24 529
e 24 544
e 24 570
e 24 580
e 24 656
e 24 669
e 24 675
e 24 722
e 24 770
e 24 823
e 24 830
e 24 838
e 24 847
e 24 944
e 24 982
e 25 306
e 25 310
e 25 334
e 25 399
e 25 410
e 25 480
e 25 488
e 25 489
e 25 516
e 25 523
e 25 585
e 25 588
e 25 614
e 25 615
e 25 647
e 25 653
e 25 750
e 25 786
e 25 794
e 25 832
e 25 921
e 25 939
e 25 947
e 25 987
e 26 287
e 26 291
e 26 321
e 26 411
e 26 412
e 26 419
e 26 424
e 26 454
e 26 573
e 26 627
e 26 650
e 26 674
e 26 749
e 26 790
e 26 801
e 26 888
e 26 956
e 27 286
e 27 314
e 27 340
e 27 372
e 27 395
e 27 412
e 27 448
e 27 452
e 27 470
e 27 484
e 27 520
e 27 529
e 27 530
e 27 536
e 27 540
e 27 555
e 27 570
e 27 643
e 27 673
e 27 687
e 27 697
e 27 783
e 27 787
e 27 808
e 27 822
e 27 845
e 27 890
e 27 937
e 27 989
e 28 375
e 28 384
e 28 424
e 28 429
e 28 430
e 28 446
e 28 463
e 28 467
e 28 523
e 28 610
e 28 773
e 28 852
e 28 884
e 28 914
e 28 923
e 28 932
e 28 934
e 28 958
e 28 984
e 29 258
e 29 303
e 29 342
e 29 372
e 29 376
e 29 385
e 29 446
e 29 452
e 29 455
e 29 470
e 29 533
e 29 561
e 29 596
e 29 615
e 29 619
e 29 630
e 29 670
e 29 687
e 29 692
e 29 826
e 29 858
e 29 871
e 29 989
e 30 260
e 30 282
e 30 285
e 30 335
e 30 353
e 30 406
e 30 438
e 30 441
e 30 662
e 30 719
e 30 729
e 30 741
e 30 813
e 30 819
e 30 826
e 30 861
e 30 869
e 30 934
e 30 981
e 31 269
e 31 310
e 31 311
e 31 316
e 31 335
e 31 361
e 31 387
e 31 410
e 31 532
e 31 548
e 31 622
e 31 650
e 31 653
e 31 682
e 31 691
e 31 709
e 31 729
e 31 792
e 31 803
e 31 808
e 31 837
e 31 856
e 31 903
e 31 961
e 31 983
e 31 985
e 32 267
e 32 281
e 32 283
e 32 334
e 32 385
e 32 402
e 32 409
e 32 452
e 32 470
e 32 545
e 32 636
e 32 645
e 32 675
e 32 679
e 32 721
e 32 759
e 32 868
e 32 893
e 32 977
e 33 333
e 33 335
e 33 354
e 33 386
e 33 407
e 33 476
e 33 519
e 33 522
e 33 583
e 33 620
e 33 665
e 33 669
e 33 724
e 33 730
e 33 776
e 33 891
e 33 959
e 33 969
e 33 996
e 34 260
e 34 293
e 34 354
e 34 518
e 34 532
e 34 607
e 34 695
e 34 805
e 34 813
e 34 821
e 34 918
e 35 261
e 35 262
e 35 281
e 35 287
e 35 383
e 35 434
e 35 441
e 35 442
e 35 455
e 35 473
e 35 486
e 35 497
e 35 519
e 35 540
e 35 593
e 35 659
e 35 680
e 35 698
e 35 702
e 35 710
e 35 716
e 35 852
e 35 874
e 35 916
e 35 941
e 36 274
e 36 299
e 36 305
e 36 332
e 36 394
e 36 414
e 36 466
e 36 531
e 36 556
e 36 621
e 36 661
e 36 683
e 36 702
e 36 708
e 36 766
e 36 790
e 36 820
e 36 840
e 36 899
e 36 922
e 36 939
e 36 952
e 36 974
e 36 991
e 37 278
e 37 290
e 37 310
e 37 337
e 37 450
e 37 506
e 37 613
e 37 672
e 37 692
e 37 728
e 37 736
e 37 751
e 37 757
e 37 807
e 37 811
e 37 861
e 37 915
e 37 926
e 38 264
e 38 281
e 38 353
e 38 355
e 38 375
e 38 430
e 38 458
e 38 477
e 38 501
e 38 629
e 38 643
e 38 656
e 38 668
e 38 674
e 38 736
e 38 738
e 38 758
e 38 772
e 38 776
e 38 806
e 38 820
e 38 849
e 38 868
e 38 927
e 38 938
e 38 948
e 38 964
e 38 985
e 38 997
e 39 253
e 39 262
e 39 311
e 39 345
e 39 358
e 39 515
e 39 529
e 39 532
e 39 545
e 39 560
e 39 577
e 39 631
e 39 686
e 39 688
e 39 702
e 39 759
e 39 786
e 39 799
e 39 830
e 39 845
e 39 878
e 39 892
e 39 895
e 40 280
e 40 344
e 40 370
e 40 395
e 40 399
e 40 403
e 40 467
e 40 513
e 40 568
e 40 669
e 40 710
e 40 773
e 40 843
e 40 869
e 40 901
e 41 262
e 41 283
e 41 291
e 41 336
e 41 350
e 41 399
e 41 413
e 41 442
e 41 582
e 41 599
e 41 675
e 41 701
e 41 758
e 41 798
e 41 799
e 41 819
e 41 936
e 41 971
e 41 974
e 42 329
e 42 338
e 42 339
e 42 348
e 42 351
e 42 359
e 42 366
e 42 406
e 42 470
e 42 482
e 42 504
e 42 551
e 42 552
e 42 581
e 42 663
e 42 666
e 42 674
e 42 724
e 42 736
e 42 748
e 42 755
e 42 761
e 42 762
e 42 791
e 42 862
e 42 909
e 42 948
e 42 967
e 43 348
e 43 407
e 43 439
e 43 557
e 43 577
e 43 579
e 43 689
e 43 703
e 43 738
e 43 750
e 43 761
e 43 861
e 43 871
e 43 893
e 43 981
e 44 295
e 44 299
e 44 325
e 44 351
e 44 406
e 44 445
e 44 472
e 44 479
e 44 531
e 44 534
e 44 584
e 44 743
e 44 745
e 44 792
e 44 824
e 44 860
e 44 888
e 44 904
e 44 950
e 44 982
e 45 302
e 45 306
e 45 366
e 45 381
e 45 382
e 45 400
e 45 449
e 45 469
e 45 491
e 45 507
e 45 526
e 45 609
e 45 667
e 45 715
e 45 723
e 45 740
e 45 791
e 45 804
e 45 848
e 45 886
e 45 963
e 45 980
e 45 982
e 45 988
e 46 272
e 46 276
e 46 287
e 46 323
e 46 465
e 46 466
e 46 469
e 46 482
e 46 507
e 46 519
e 46 564
e 46 594
e 46 613
e 46 624
e 46 625
e 46 658
e 46 664
e 46 690
e 46 694
e 46 727
e 46 774
e 46 887
e 46 894
e 46 926
e 46 933
e 46 945
e 46 948
e 46 954
e 46 974
e 47 271
e 47 300
e 47 301
e 47 317
e 47 321
e 47 322
e 47 330
e 47 384
e 47 423
e 47 429
e 47 460
e 47 461
e 47 667
e 47 684
e 47 694
e 47 797
e 47 808
e 47 810
e 47 823
e 47 838
e 47 905
e 47 942
e 47 952
e 48 313
e 48 439
e 48 463
e 48 518
e 48 523
e 48 573
e 48 633
e 48 638
e 48 825
e 48 894
e 48 902
e 48 957
e 48 964
e 48 996
e 49 258
e 49 320
e 49 519
e 49 525
e 49 527
e 49 539
e 49 542
e 49 547
e 49 573
e 49 603
e 49 609
e 49 628
e 49 707
e 49 713
e 49 804
e 49 820
e 49 827
e 49 865
e 49 883
e 49 929
e 49 969
e 49 970
e 49 974
e 49 976
e 50 296
e 50 313
e 50 332
e 50 333
e 50 345
e 50 349
e 50 455
e 50 475
e 50 479
e 50 485
e 50 492
e 50 521
e 50 524
e 50 527
e 50 558
e 50 590
e 50 603
e 50 628
e 50 682
e 50 715
e 50 770
e 50 787
e 50 815
e 50 821
e 50 874
e 50 899
e 50 941
e 50 947
e 50 961
e 50 987
e 50 992
e 51 262
e 51 280
e 51 348
e 51 421
e 51 509
e 51 517
e 51 546
e 51 612
e 51 629
e 51 632
e 51 635
e 51 641
e 51 660
e 51 693
e 51 736
e 51 755
e 51 884
e 51 916
e 51 933
e 51 940
e 51 969
e 51 986
e 51 992
e 52 258
e 52 269
e 52 312
e 52 366
e 52 368
e 52 417
e 52 447
e 52 575
e 52 581
e 52 605
e 52 696
e 52 753
e 52 757
e 52 778
e 52 788
e 52 834
e 52 892
e 52 913
e 52 920
e 52 950
e 52 957
e 52 965
e 52 977
e 52 987
e 53 279
e 53 346
e 53 353
e 53 357
e 53 375
e 53 408
e 53 463
e 53 505
e 53 527
e 53 533
e 53 555
e 53 569
e 53 617
e 53 626
e 53 674
e 53 692
e 53 704
e 53 705
e 53 743
e 53 820
e 53 884
e 53 936
e 54 266
e 54 269
e 54 293
e 54 317
e 54 326
e 54 355
e 54 356
e 54 367
e 54 387
e 54 440
e 54 498
e 54 514
e 54 534
e 54 552
e 54 553
e 54 616
e 54 643
e 54 660
e 54 673
e 54 717
e 54 779
e 54 781
e 54 849
e 54 851
e 54 875
e 54 917
e 54 918
e 54 959
e 54 984
e 55 338
e 55 341
e 55 343
e 55 347
e 55 397
e 55 442
e 55 484
e 55 508
e 55 530
e 55 562
e 55 624
e 55 651
e 55 657
e 55 702
e 55 723
e 55 732
e 55 745
e 55 770
e 55 835
e 55 906
e 55 919
e 55 959
e 55 968
e 55 995
e 56 256
e 56 260
e 56 304
e 56 309
e 56 365
e 56 376
e 56 377
e 56 399
e 56 414
e 56 421
e 56 439
e 56 493
e 56 546
e 56 576
e 56 624
e 56 631
e 56 635
e 56 659
e 56 705
e 56 730
e 56 783
e 56 829
e 56 854
e 56 903
e 56 954
e 56 968
e 57 257
e 57 341
e 57 363
e 57 513
e 57 517
e 57 556
e 57 557
e 57 630
e 57 656
e 57 662
e 57 668
e 57 674
e 57 692
e 57 705
e 57 712
e 57 728
e 57 740
e 57 805
e 57 833
e 57 862
e 57 965
e 58 368
e 58 439
e 58 511
e 58 596
e 58 653
e 58 656
e 58 744
e 58 749
e 58 792
e 58 871
e 58 884
e 59 262
e 59 274
e 59 315
e 59 326
e 59 335
e 59 396
e 59 432
e 59 521
e 59 543
e 59 560
e 59 608
e 59 618
e 59 634
e 59 652
e 59 670
e 59 673
e 59 770
e 59 854
e 59 856
e 59 900
e 59 946
e 59 950
e 59 956
e 59 967
e 60 295
e 60 296
e 60 371
e 60 380
e 60 389
e 60 510
e 60 534
e 60 625
e 60 651
e 60 652
e 60 665
e 60 672
e 60 676
e 60 678
e 60 710
e 60 732
e 60 806
e 60 857
e 60 869
e 60 870
e 60 956
e 60 990
e 61 254
e 61 357
e 61 382
e 61 450
e 61 482
e 61 487
e 61 500
e 61 555
e 61 642
e 61 665
e 61 666
e 61 670
e 61 673
e 61 712
e 61 743
e 61 750
e 61 788
e 61 805
e 61 865
e 61 895
e 61 909
e 61 947
e 61 960
e 61 975
e 62 263
e 62 307
e 62 326
e 62 336
e 62 341
e 62 370
e 62 398
e 62 421
e 62 431
e 62 446
e 62 492
e 62 533
e 62 545
e 62 594
e 62 613
e 62 637
e 62 642
e 62 729
e 62 827
e 62 831
e 62 878
e 63 291
e 63 303
e 63 375
e 63 425
e 63 449
e 63 475
e 63 501
e 63 531
e 63 549
e 63 599
e 63 612
e 63 656
e 63 700
e 63 749
e 63 770
e 63 793
e 63 885
e 63 925
e 63 987
e 64 263
e 64 313
e 64 320
e 64 335
e 64 344
e 64 352
e 64 364
e 64 375
e 64 399
e 64 426
e 64 457
e 64 484
e 64 596
e 64 625
e 64 640
e 64 679
e 64 783
e 64 784
e 64 834
e 64 869
e 64 938
e 65 310
e 65 328
e 65 375
e 65 458
e 65 500
e 65 581
e 65 594
e 65 605
e 65 720
e 65 751
e 65 793
e 65 819
e 65 827
e 65 850
e 65 851
e 65 866
e 65 873
e 65 884
e 65 932
e 65 955
e 65 964
e 65 992
e 66 258
e 66 276
e 66 368
e 66 411
e 66 452
e 66 489
e 66 492
e 66 504
e 66 528
e 66 578
e 66 596
e 66 597
e 66 599
e 66 631
e 66 733
e 66 841
e 66 858
e 66 876
e 66 885
e 66 949
e 67 329
e 67 338
e 67 357
e 67 366
e 67 382
e 67 387
e 67 466
e 67 493
e 67 496
e 67 518
e 67 529
e 67 554
e 67 596
e 67 646
e 67 678
e 67 706
e 67 723
e 67 785
e 67 805
e 67 846
e 67 860
e 67 872
e 67 966
e 68 295
e 68 307
e 68 312
e 68 320
e 68 367
e 68 384
e 68 523
e 68 559
e 68 583
e 68 654
e 68 666
e 68 674
e 68 711
e 68 726
e 68 742
e 68 782
e 68 806
e 68 863
e 68 872
e 68 885
e 68 908
e 68 913
e 68 930
e 68 931
e 68 969
e 69 274
e 69 287
e 69 305
e 69 360
e 69 364
e 69 370
e 69 381
e 69 439
e 69 452
e 69 462
e 69 518
e 69 576
e 69 635
e 69 681
e 69 705
e 69 762
e 69 795
e 69 828
e 69 889
e 69 925
e 69 949
e 70 278
e 70 292
e 70 294
e 70 321
e 70 352
e 70 394
e 70 403
e 70 424
e 70 546
e 70 687
e 70 716
e 70 774
e 70 821
e 70 832
e 70 843
e 70 944
e 71 257
e 71 280
e 71 310
e 71 335
e 71 374
e 71 425
e 71 443
e 71 466
e 71 467
e 71 536
e 71 539
e 71 604
e 71 615
e 71 668
e 71 712
e 71 714
e 71 768
e 71 826
e 71 846
e 71 885
e 71 919
e 71 977
e 71 979
e 71 998
e 72 378
e 72 385
e 72 390
e 72 417
e 72 468
e 72 570
e 72 579
e 72 590
e 72 609
e 72 655
e 72 680
e 72 682
e 72 728
e 72 729
e 72 778
e 72 792
e 72 867
e 72 880
e 72 884
e 72 912
e 72 933
e 73 320
e 73 356
e 73 417
e 73 455
e 73 536
e 73 604
e 73 629
e 73 633
e 73 637
e 73 665
e 73 676
e 73 728
e 73 739
e 73 789
e 73 858
e 73 904
e 73 930
e 73 959
e 73 971
e 73 986
e 74 257
e 74 263
e 74 271
e 74 283
e 74 300
e 74 328
e 74 398
e 74 438
e 74 522
e 74 527
e 74 547
e 74 574
e 74 645
e 74 653
e 74 654
e 74 667
e 74 717
e 74 734
e 74 771
e 74 777
e 74 790
e 74 799
e 74 849
e 74 870
e 74 903
e 74 911
e 75 286
e 75 304
e 75 339
e 75 392
e 75 442
e 75 465
e 75 467
e 75 481
e 75 487
e 75 508
e 75 578
e 75 589
e 75 622
e 75 667
e 75 680
e 75 706
e 75 729
e 75 760
e 75 833
e 75 838
e 75 856
e 75 871
e 75 912
e 75 948
e 75 949
e 75 958
e 75 962
e 75 964
e 75 995
e 76 267
e 76 297
e 76 304
e 76 320
e 76 381
e 76 459
e 76 504
e 76 581
e 76 586
e 76 611
e 76 623
e 76 633
e 76 635
e 76 652
e 76 660
e 76 670
e 76 678
e 76 681
e 76 686
e 76 714
e 76 723
e 76 793
e 76 898
e 76 941
e 76 944
e 76 965
e 76 990
e 77 260
e 77 300
e 77 326
e 77 332
e 77 402
e 77 416
e 77 418
e 77 450
e 77 491
e 77 536
e 77 546
e 77 548
e 77 558
e 77 671
e 77 703
e 77 711
e 77 766
e 77 779
e 77 787
e 77 841
e 77 850
e 77 874
e 77 878
e 77 895
e 77 924
e 77 946
e 77 954
e 77 971
e 77 1000
e 78 294
e 78 320
e 78 371
e 78 397
e 78 404
e 78 469
e 78 475
e 78 534
e 78 547
e 78 550
e 78 598
e 78 628
e 78 636
e 78 649
e 78 703
e 78 757
e 78 769
e 78 858
e 78 908
e 78 954
e 79 294
e 79 323
e 79 334
e 79 350
e 79 359
e 79 369
e 79 371
e 79 375
e 79 379
e 79 395
e 79 495
e 79 535
e 79 577
e 79 737
e 79 743
e 79 747
e 79 768
e 79 833
e 79 839
e 79 901
e 79 924
e 79 935
e 79 965
e 79 967
e 79 978
e 80 272
e 80 297
e 80 301
e 80 392
e 80 397
e 80 437
e 80 497
e 80 537
e 80 551
e 80 609
e 80 660
e 80 697
e 80 719
e 80 732
e 80 785
e 80 791
e 80 812
e 80 860
e 80 885
e 80 911
e 80 924
e 80 950
e 80 960
e 80 983
e 81 257
e 81 278
e 81 285
e 81 413
e 81 496
e 81 546
e 81 571
e 81 578
e 81 584
e 81 617
e 81 659
e 81 699
e 81 717
e 81 769
e 81 793
e 81 805
e 81 807
e 81 822
e 81 854
e 81 919
e 81 949
e 81 967
e 81 997
e 81 1000
e 82 275
e 82 290
e 82 302
e 82 371
e 82 385
e 82 392
e 82 417
e 82 439
e 82 452
e 82 476
e 82 488
e 82 626
e 82 639
e 82 695
e 82 720
e 82 782
e 82 798
e 82 906
e 82 950
e 82 953
e 82 977
e 83 268
e 83 316
e 83 380
e 83 409
e 83 523
e 83 557
e 83 563
e 83 568
e 83 666
e 83 682
e 83 791
e 83 822
e 83 834
e 83 882
e 83 899
e 83 997
e 84 262
e 84 267
e 84 289
e 84 294
e 84 295
e 84 327
e 84 330
e 84 333
e 84 360
e 84 373
e 84 389
e 84 405
e 84 428
e 84 456
e 84 462
e 84 515
e 84 547
e 84 561
e 84 571
e 84 581
e 84 590
e 84 605
e 84 614
e 84 631
e 84 657
e 84 756
e 84 772
e 84 820
e 84 852
e 84 978
e 84 993
e 85 308
e 85 326
e 85 347
e 85 356
e 85 536
e 85 561
e 85 611
e 85 619
e 85 647
e 85 649
e 85 696
e 85 712
e 85 801
e 85 832
e 85 939
e 85 950
e 85 990
e 85 996
e 86 264
e 86 270
e 86 307
e 86 353
e 86 422
e 86 446
e 86 461
e 86 547
e 86 776
e 86 853
e 86 855
e 86 907
e 86 959
e 87 362
e 87 426
e 87 440
e 87 503
e 87 532
e 87 543
e 87 562
e 87 565
e 87 635
e 87 652
e 87 780
e 87 781
e 87 816
e 87 860
e 87 931
e 87 956
e 87 966
e 87 994
e 88 286
e 88 306
e 88 360
e 88 414
e 88 418
e 88 494
e 88 498
e 88 501
e 88 523
e 88 530
e 88 570
e 88 608
e 88 623
e 88 638
e 88 642
e 88 683
e 88 702
e 88 803
e 88 870
e 88 929
e 88 939
e 88 944
e 88 981
e 89 321
e 89 336
e 89 342
e 89 348
e 89 355
e 89 436
e 89 479
e 89 546
e 89 553
e 89 578
e 89 604
e 89 641
e 89 707
e 89 721
e 89 769
e 89 793
e 89 820
e 89 830
e 89 859
e 89 875
e 89 880
e 89 929
e 89 936
e 89 978
e 89 986
e 90 335
e 90 423
e 90 432
e 90 438
e 90 451
e 90 458
e 90 481
e 90 515
e 90 517
e 90 519
e 90 531
e 90 546
e 90 607
e 90 676
e 90 677
e 90 682
e 90 764
e 90 803
e 90 815
e 90 878
e 90 900
e 90 945
e 91 271
e 91 348
e 91 374
e 91 385
e 91 400
e 91 409
e 91 497
e 91 568
e 91 583
e 91 620
e 91 649
e 91 695
e 91 714
e 91 802
e 91 876
e 91 885
e 91 909
e 91 929
e 91 933
e 91 970
e 91 971
e 91 977
e 92 304
e 92 376
e 92 426
e 92 477
e 92 529
e 92 550
e 92 565
e 92 577
e 92 620
e 92 629
e 92 631
e 92 637
e 92 683
e 92 684
e 92 711
e 92 805
e 92 814
e 92 853
e 92 868
e 92 912
e 92 934
e 92 966
e 92 1000
e 93 259
e 93 413
e 93 443
e 93 455
e 93 471
e 93 583
e 93 594
e 93 612
e 93 642
e 93 686
e 93 701
e 93 707
e 93 711
e 93 724
e 93 758
e 93 787
e 93 798
e 93 806
e 93 835
e 93 855
e 93 890
e 93 892
e 93 906
e 93 907
e 93 926
e 93 930
e 93 946
e 93 977
e 93 995
e 94 256
e 94 335
e 94 338
e 94 363
e 94 386
e 94 428
e 94 438
e 94 448
e 94 466
e 94 585
e 94 643
e 94 704
e 94 705
e 94 726
e 94 748
e 94 760
e 94 783
e 94 836
e 94 960
e 94 974
e 95 256
e 95 281
e 95 308
e 95 321
e 95 329
e 95 437
e 95 507
e 95 560
e 95 590
e 95 619
e 95 641
e 95 652
e 95 669
e 95 715
e 95 753
e 95 754
e 95 822
e 95 875
e 95 929
e 95 947
e 95 998
e 96 299
e 96 319
e 96 336
e 96 349
e 96 376
e 96 393
e 96 403
e 96 449
e 96 518
e 96 542
e 96 573
e 96 588
e 96 621
e 96 624
e 96 629
e 96 655
e 96 709
e 96 747
e 96 770
e 96 792
e 96 801
e 96 821
e 96 841
e 96 928
e 97 395
e 97 441
e 97 476
e 97 512
e 97 523
e 97 532
e 97 624
e 97 647
e 97 664
e 97 741
e 97 775
e 97 798
e 97 873
e 97 885
e 97 951
e 97 968
e 97 990
e 98 251
e 98 282
e 98 309
e 98 355
e 98 369
e 98 381
e 98 382
e 98 383
e 98 386
e 98 447
e 98 575
e 98 590
e 98 634
e 98 719
e 98 863
e 98 879
e 98 907
e 98 962
e 98 990
e 99 289
e 99 315
e 99 350
e 99 363
e 99 382
e 99 401
e 99 466
e 99 479
e 99 549
e 99 556
e 99 595
e 99 680
e 99 703
e 99 717
e 99 728
e 99 848
e 99 862
e 99 955
e 99 968
e 99 993
e 100 257
e 100 291
e 100 314
e 100 364
e 100 431
e 100 470
e 100 545
e 100 635
e 100 636
e 100 698
e 100 701
e 100 771
e 100 820
e 100 971
e 100 975
e 100 984
e 101 252
e 101 293
e 101 346
e 101 397
e 101 400
e 101 477
e 101 480
e 101 534
e 101 640
e 101 641
e 101 701
e 101 718
e 101 732
e 101 751
e 101 791
e 101 842
e 101 854
e 101 930
e 101 939
e 102 259
e 102 280
e 102 284
e 102 330
e 102 346
e 102 374
e 102 378
e 102 390
e 102 423
e 102 426
e 102 459
e 102 472
e 102 549
e 102 557
e 102 575
e 102 635
e 102 658
e 102 686
e 102 742
e 102 751
e 102 779
e 102 819
e 102 830
e 102 832
e 102 836
e 102 914
e 102 922
e 102 926
e 102 973
e 102 996
e 103 287
e 103 310
e 103 335
e 103 350
e 103 357
e 103 457
e 103 590
e 103 605
e 103 610
e 103 650
e 103 656
e 103 780
e 103 787
e 103 884
e 104 281
e 104 283
e 104 295
e 104 318
e 104 358
e 104 404
e 104 424
e 104 453
e 104 485
e 104 535
e 104 621
e 104 629
e 104 666
e 104 681
e 104 691
e 104 820
e 104 837
e 104 846
e 104 876
e 104 882
e 104 889
e 104 892
e 104 933
e 104 960
e 104 968
e 104 996
e 105 256
e 105 266
e 105 284
e 105 287
e 105 372
e 105 415
e 105 426
e 105 461
e 105 462
e 105 484
e 105 485
e 105 559
e 105 704
e 105 708
e 105 783
e 105 795
e 105 813
e 105 819
e 105 829
e 105 857
e 105 869
e 105 880
e 105 901
e 105 946
e 106 327
e 106 337
e 106 360
e 106 388
e 106 411
e 106 424
e 106 498
e 106 522
e 106 560
e 106 604
e 106 671
e 106 747
e 106 814
e 106 852
e 106 968
e 107 326
e 107 393
e 107 456
e 107 637
e 107 664
e 107 672
e 107 681
e 107 796
e 107 831
e 107 934
e 108 254
e 108 300
e 108 360
e 108 404
e 108 458
e 108 482
e 108 496
e 108 552
e 108 618
e 108 675
e 108 692
e 108 811
e 108 826
e 108 829
e 108 878
e 108 879
e 108 890
e 108 896
e 108 928
e 108 988
e 108 997
e 109 281
e 109 287
e 109 299
e 109 315
e 109 429
e 109 526
e 109 529
e 109 537
e 109 629
e 109 683
e 109 792
e 109 862
e 109 930
e 109 949
e 109 993
e 110 297
e 110 319
e 110 358
e 110 415
e 110 433
e 110 438
e 110 447
e 110 459
e 110 587
e 110 613
e 110 623
e 110 624
e 110 659
e 110 664
e 110 672
e 110 703
e 110 722
e 110 766
e 110 795
e 110 832
e 110 875
e 110 877
e 110 894
e 110 921
e 110 952
e 110 969
e 110 988
e 111 314
e 111 479
e 111 493
e 111 538
e 111 556
e 111 558
e 111 569
e 111 613
e 111 698
e 111 732
e 111 734
e 111 758
e 111 761
e 111 902
e 111 946
e 111 947
e 111 958
e 111 965
e 112 265
e 112 319
e 112 336
e 112 370
e 112 372
e 112 409
e 112 452
e 112 482
e 112 525
e 112 529
e 112 546
e 112 556
e 112 631
e 112 736
e 112 747
e 112 760
e 112 780
e 112 880
e 112 890
e 112 934
e 112 948
e 112 972
e 112 982
e 113 282
e 113 297
e 113 340
e 113 369
e 113 429
e 113 439
e 113 461
e 113 576
e 113 578
e 113 585
e 113 608
e 113 674
e 113 678
e 113 692
e 113 693
e 113 705
e 113 763
e 113 818
e 113 874
e 113 906
e 113 923
e 113 957
e 114 312
e 114 362
e 114 427
e 114 480
e 114 523
e 114 582
e 114 619
e 114 662
e 114 674
e 114 744
e 114 752
e 114 772
e 114 800
e 114 807
e 114 914
e 114 952
e 114 973
e 115 263
e 115 264
e 115 268
e 115 272
e 115 292
e 115 304
e 115 364
e 115 369
e 115 400
e 115 426
e 115 428
e 115 451
e 115 466
e 115 467
e 115 474
e 115 486
e 115 567
e 115 604
e 115 620
e 115 629
e 115 657
e 115 715
e 115 726
e 115 733
e 115 854
e 115 868
e 115 881
e 115 897
e 115 914
e 115 925
e 115 945
e 115 947
e 115 952
e 116 269
e 116 275
e 116 288
e 116 318
e 116 326
e 116 500
e 116 503
e 116 636
e 116 861
e 116 885
e 116 916
e 116 975
e 117 315
e 117 325
e 117 340
e 117 342
e 117 377
e 117 382
e 117 413
e 117 487
e 117 498
e 117 607
e 117 610
e 117 657
e 117 658
e 117 681
e 117 719
e 117 751
e 117 832
e 117 864
e 117 878
e 117 888
e 117 957
e 118 252
e 118 253
e 118 257
e 118 277
e 118 354
e 118 371
e 118 393
e 118 399
e 118 441
e 118 471
e 118 509
e 118 529
e 118 543
e 118 548
e 118 553
e 118 592
e 118 653
e 118 700
e 118 704
e 118 736
e 118 746
e 118 750
e 118 763
e 118 764
e 118 782
e 118 783
e 118 800
e 118 874
e 118 888
e 118 941
e 118 946
e 118 994
e 119 308
e 119 354
e 119 368
e 119 390
e 119 426
e 119 430
e 119 500
e 119 526
e 119 577
e 119 641
e 119 774
e 119 779
e 119 782
e 119 783
e 119 822
e 119 862
e 119 879
e 119 898
e 119 988
e 120 262
e 120 272
e 120 309
e 120 310
e 120 323
e 120 333
e 120 358
e 120 364
e 120 395
e 120 399
e 120 457
e 120 513
e 120 534
e 120 548
e 120 594
e 120 615
e 120 620
e 120 645
e 120 712
e 120 849
e 120 852
e 120 860
e 120 891
e 120 941
e 121 288
e 121 295
e 121 303
e 121 464
e 121 577
e 121 590
e 121 595
e 121 633
e 121 635
e 121 656
e 121 728
e 121 741
e 121 743
e 121 746
e 121 768
e 121 799
e 121 945
e 122 297
e 122 328
e 122 334
e 122 343
e 122 452
e 122 500
e 122 502
e 122 511
e 122 519
e 122 532
e 122 559
e 122 645
e 122 646
e 122 665
e 122 709
e 122 771
e 122 773
e 122 775
e 122 783
e 122 801
e 122 826
e 122 838
e 122 912
e 122 925
e 123 289
e 123 428
e 123 518
e 123 593
e 123 616
e 123 626
e 123 639
e 123 646
e 123 653
e 123 657
e 123 758
e 123 799
e 123 828
e 123 840
e 123 890
e 123 908
e 123 925
e 123 952
e 123 953
e 124 286
e 124 304
e 124 336
e 124 381
e 124 449
e 124 458
e 124 493
e 124 538
e 124 543
e 124 563
e 124 585
e 124 588
e 124 623
e 124 632
e 124 689
e 124 700
e 124 736
e 124 774
e 124 792
e 124 839
e 124 840
e 124 846
e 124 852
e 124 933
e 124 940
e 124 944
e 124 987
e 124 995
e 125 257
e 125 287
e 125 294
e 125 306
e 125 364
e 125 418
e 125 420
e 125 470
e 125 500
e 125 541
e 125 587
e 125 662
e 125 688
e 125 718
e 125 735
e 125 938
e 125 982
e 125 988
e 125 993
e 126 252
e 126 282
e 126 289
e 126 357
e 126 363
e 126 395
e 126 403
e 126 474
e 126 501
e 126 504
e 126 516
e 126 527
e 126 546
e 126 584
e 126 597
e 126 613
e 126 780
e 126 782
e 126 819
e 126 866
e 126 894
e 126 908
e 126 913
e 126 945
e 126 952
e 126 981
e 127 276
e 127 329
e 127 347
e 127 379
e 127 385
e 127 396
e 127 462
e 127 469
e 127 501
e 127 523
e 127 536
e 127 541
e 127 616
e 127 687
e 127 717
e 127 747
e 127 824
e 128 361
e 128 381
e 128 400
e 128 419
e 128 504
e 128 575
e 128 659
e 128 689
e 128 758
e 128 815
e 128 874
e 128 877
e 128 887
e 128 940
e 128 963
e 129 253
e 129 258
e 129 306
e 129 355
e 129 361
e 129 377
e 129 396
e 129 450
e 129 468
e 129 511
e 129 520
e 129 522
e 129 537
e 129 545
e 129 593
e 129 684
e 129 755
e 129 804
e 129 817
e 129 842
e 129 852
e 129 855
e 129 886
e 129 892
e 129 924
e 129 929
e 129 937
e 129 975
e 130 262
e 130 310
e 130 316
e 130 319
e 130 329
e 130 342
e 130 346
e 130 361
e 130 362
e 130 370
e 130 438
e 130 468
e 130 572
e 130 641
e 130 647
e 130 655
e 130 666
e 130 694
e 130 701
e 130 764
e 130 766
e 130 806
e 130 849
e 130 870
e 130 871
e 130 894
e 130 905
e 130 969
e 131 279
e 131 327
e 131 394
e 131 438
e 131 503
e 131 516
e 131 549
e 131 599
e 131 631
e 131 733
e 131 734
e 131 746
e 131 796
e 131 797
e 131 814
e 131 836
e 131 894
e 131 941
e 132 271
e 132 387
e 132 393
e 132 402
e 132 407
e 132 477
e 132 498
e 132 522
e 132 542
e 132 581
e 132 598
e 132 632
e 132 667
e 132 708
e 132 801
e 132 887
e 132 902
e 132 908
e 132 914
e 132 982
e 132 983
e 132 991
e 133 329
e 133 419
e 133 483
e 133 520
e 133 545
e 133 552
e 133 627
e 133 629
e 133 661
e 133 678
e 133 679
e 133 682
e 133 686
e 133 847
e 133 870
e 133 876
e 133 917
e 133 923
e 133 956
e 134 257
e 134 276
e 134 327
e 134 353
e 134 399
e 134 428
e 134 546
e 134 552
e 134 639
e 134 655
e 134 666
e 134 679
e 134 697
e 134 728
e 134 794
e 134 887
e 134 896
e 134 905
e 134 942
e 134 994
e 135 264
e 135 375
e 135 399
e 135 402
e 135 411
e 135 441
e 135 491
e 135 644
e 135 679
e 135 696
e 135 719
e 135 731
e 135 735
e 135 740
e 135 741
e 135 754
e 135 794
e 135 804
e 135 857
e 135 868
e 135 957
e 135 976
e 136 251
e 136 286
e 136 295
e 136 387
e 136 418
e 136 486
e 136 550
e 136 567
e 136 613
e 136 640
e 136 745
e 136 897
e 136 936
e 136 952
e 136 961
e 136 969
e 137 339
e 137 382
e 137 390
e 137 391
e 137 418
e 137 441
e 137 464
e 137 488
e 137 495
e 137 501
e 137 503
e 137 530
e 137 573
e 137 585
e 137 615
e 137 650
e 137 670
e 137 695
e 137 699
e 137 896
e 137 914
e 137 920
e 137 925
e 137 952
e 137 954
e 137 988
e 138 253
e 138 271
e 138 325
e 138 340
e 138 370
e 138 427
e 138 432
e 138 487
e 138 497
e 138 529
e 138 536
e 138 541
e 138 549
e 138 586
e 138 603
e 138 670
e 138 685
e 138 701
e 138 704
e 138 717
e 138 760
e 138 764
e 138 814
e 138 907
e 138 908
e 138 920
e 138 959
e 139 295
e 139 305
e 139 354
e 139 363
e 139 382
e 139 447
e 139 452
e 139 477
e 139 482
e 139 495
e 139 502
e 139 532
e 139 534
e 139 550
e 139 582
e 139 616
e 139 658
e 139 684
e 139 717
e 139 759
e 139 768
e 139 798
e 139 807
e 139 844
e 139 897
e 139 924
e 139 928
e 139 946
e 139 980
e 140 252
e 140 281
e 140 299
e 140 321
e 140 338
e 140 341
e 140 344
e 140 347
e 140 384
e 140 447
e 140 463
e 140 564
e 140 611
e 140 710
e 140 739
e 140 776
e 140 791
e 140 811
e 140 814
e 140 822
e 140 960
e 140 962
e 140 985
e 140 988
e 140 1000
e 141 293
e 141 303
e 141 381
e 141 384
e 141 407
e 141 454
e 141 464
e 141 549
e 141 552
e 141 563
e 141 570
e 141 580
e 141 609
e 141 655
e 141 678
e 141 706
e 141 729
e 141 738
e 141 752
e 141 760
e 141 794
e 141 800
e 141 850
e 141 860
e 141 935
e 141 981
e 142 257
e 142 345
e 142 351
e 142 385
e 142 429
e 142 468
e 142 491
e 142 503
e 142 539
e 142 557
e 142 561
e 142 575
e 142 630
e 142 663
e 142 680
e 142 717
e 142 801
e 142 806
e 142 807
e 142 813
e 143 277
e 143 365
e 143 394
e 143 397
e 143 401
e 143 406
e 143 530
e 143 542
e 143 598
e 143 620
e 143 693
e 143 715
e 143 749
e 143 770
e 143 782
e 143 836
e 143 895
e 144 325
e 144 337
e 144 409
e 144 425
e 144 443
e 144 497
e 144 591
e 144 602
e 144 664
e 144 704
e 144 797
e 144 814
e 144 885
e 144 901
e 144 927
e 144 946
e 144 991
e 145 288
e 145 325
e 145 335
e 145 368
e 145 387
e 145 388
e 145 391
e 145 415
e 145 515
e 145 579
e 145 588
e 145 606
e 145 654
e 145 707
e 145 721
e 145 788
e 145 852
e 145 854
e 145 940
e 145 986
e 146 261
e 146 266
e 146 281
e 146 309
e 146 379
e 146 385
e 146 386
e 146 411
e 146 422
e 146 446
e 146 506
e 146 514
e 146 593
e 146 646
e 146 695
e 146 744
e 146 751
e 146 802
e 146 805
e 146 927
e 147 274
e 147 278
e 147 279
e 147 291
e 147 293
e 147 320
e 147 359
e 147 398
e 147 408
e 147 444
e 147 513
e 147 528
e 147 578
e 147 623
e 147 629
e 147 642
e 147 699
e 147 713
e 147 732
e 147 737
e 147 765
e 147 802
e 147 815
e 147 826
e 147 835
e 147 857
e 147 861
e 147 882
e 147 907
e 147 919
e 147 948
e 147 950
e 147 954
e 147 960
e 147 968
e 148 275
e 148 292
e 148 294
e 148 345
e 148 373
e 148 419
e 148 485
e 148 486
e 148 495
e 148 589
e 148 606
e 148 618
e 148 649
e 148 703
e 148 811
e 148 813
e 148 894
e 148 958
e 148 966
e 149 331
e 149 346
e 149 365
e 149 376
e 149 393
e 149 450
e 149 457
e 149 487
e 149 508
e 149 575
e 149 625
e 149 716
e 149 718
e 149 749
e 149 784
e 149 847
e 149 875
e 149 892
e 149 962
e 149 968
e 149 972
e 149 989
e 150 258
e 150 268
e 150 333
e 150 354
e 150 359
e 150 392
e 150 422
e 150 453
e 150 499
e 150 513
e 150 516
e 150 530
e 150 582
e 150 602
e 150 687
e 150 751
e 150 771
e 150 789
e 150 796
e 150 826
e 150 899
e 150 946
e 150 949
e 150 961
e 151 331
e 151 363
e 151 389
e 151 404
e 151 485
e 151 516
e 151 542
e 151 597
e 151 601
e 151 695
e 151 733
e 151 752
e 151 797
e 151 818
e 151 921
e 151 975
e 151 981
e 152 271
e 152 322
e 152 374
e 152 391
e 152 398
e 152 400
e 152 407
e 152 426
e 152 428
e 152 484
e 152 528
e 152 531
e 152 571
e 152 595
e 152 633
e 152 647
e 152 668
e 152 685
e 152 686
e 152 695
e 152 736
e 152 854
e 152 866
e 152 892
e 152 972
e 153 267
e 153 271
e 153 277
e 153 349
e 153 477
e 153 483
e 153 504
e 153 522
e 153 575
e 153 582
e 153 597
e 153 598
e 153 660
e 153 676
e 153 705
e 153 720
e 153 764
e 153 920
e 153 928
e 154 259
e 154 305
e 154 371
e 154 410
e 154 411
e 154 419
e 154 518
e 154 548
e 154 597
e 154 602
e 154 632
e 154 660
e 154 663
e 154 720
e 154 730
e 154 829
e 154 849
e 154 856
e 154 941
e 154 943
e 155 253
e 155 271
e 155 331
e 155 348
e 155 363
e 155 448
e 155 482
e 155 561
e 155 597
e 155 649
e 155 680
e 155 706
e 155 714
e 155 729
e 155 743
e 155 757
e 155 773
e 155 805
e 155 836
e 155 859
e 155 865
e 155 938
e 155 941
e 155 967
e 155 999
e 156 252
e 156 270
e 156 286
e 156 290
e 156 336
e 156 352
e 156 393
e 156 416
e 156 428
e 156 435
e 156 444
e 156 578
e 156 585
e 156 659
e 156 698
e 156 727
e 156 790
e 156 800
e 156 884
e 156 963
e 156 974
e 156 998
e 157 276
e 157 321
e 157 372
e 157 407
e 157 433
e 157 447
e 157 467
e 157 477
e 157 503
e 157 522
e 157 591
e 157 598
e 157 740
e 157 743
e 157 749
e 157 823
e 157 897
e 157 917
e 157 928
e 157 968
e 157 982
e 157 998
e 158 297
e 158 320
e 158 335
e 158 356
e 158 360
e 158 368
e 158 431
e 158 498
e 158 500
e 158 541
e 158 614
e 158 643
e 158 684
e 158 686
e 158 711
e 158 754
e 158 761
e 158 814
e 158 951
e 158 988
e 159 260
e 159 282
e 159 325
e 159 332
e 159 353
e 159 373
e 159 417
e 159 428
e 159 454
e 159 567
e 159 589
e 159 598
e 159 609
e 159 610
e 159 616
e 159 624
e 159 635
e 159 732
e 159 748
e 159 773
e 159 844
e 159 922
e 159 953
e 159 986
e 160 290
e 160 329
e 160 391
e 160 496
e 160 503
e 160 516
e 160 518
e 160 522
e 160 546
e 160 607
e 160 621
e 160 622
e 160 624
e 160 656
e 160 682
e 160 707
e 160 710
e 160 733
e 160 761
e 160 764
e 160 776
e 160 901
e 160 958
e 160 973
e 160 1000
e 161 263
e 161 273
e 161 324
e 161 330
e 161 359
e 161 378
e 161 446
e 161 481
e 161 561
e 161 568
e 161 594
e 161 610
e 161 623
e 161 654
e 161 666
e 161 692
e 161 697
e 161 744
e 161 783
e 161 804
e 161 890
e 161 907
e 161 936
e 161 974
e 161 990
e 161 1000
e 162 261
e 162 285
e 162 289
e 162 313
e 162 341
e 162 347
e 162 401
e 162 404
e 162 480
e 162 550
e 162 571
e 162 615
e 162 658
e 162 684
e 162 726
e 162 781
e 162 856
e 162 867
e 162 910
e 163 262
e 163 285
e 163 319
e 163 328
e 163 465
e 163 468
e 163 535
e 163 601
e 163 609
e 163 612
e 163 623
e 163 629
e 163 642
e 163 676
e 163 695
e 163 699
e 163 729
e 163 764
e 163 770
e 163 803
e 163 830
e 163 835
e 163 860
e 163 888
e 163 890
e 163 891
e 163 896
e 163 940
e 164 278
e 164 288
e 164 355
e 164 365
e 164 374
e 164 390
e 164 401
e 164 409
e 164 457
e 164 586
e 164 596
e 164 622
e 164 623
e 164 627
e 164 662
e 164 665
e 164 673
e 164 739
e 164 740
e 164 744
e 164 775
e 164 820
e 164 821
e 164 835
e 164 856
e 164 871
e 165 300
e 165 313
e 165 401
e 165 413
e 165 445
e 165 535
e 165 604
e 165 637
e 165 660
e 165 673
e 165 715
e 165 722
e 165 773
e 165 829
e 165 897
e 165 909
e 165 963
e 165 983
e 166 265
e 166 332
e 166 390
e 166 450
e 166 460
e 166 461
e 166 472
e 166 479
e 166 523
e 166 535
e 166 536
e 166 546
e 166 564
e 166 582
e 166 589
e 166 629
e 166 634
e 166 655
e 166 664
e 166 749
e 166 901
e 166 917
e 166 925
e 166 928
e 166 929
e 167 322
e 167 325
e 167 337
e 167 340
e 167 368
e 167 405
e 167 423
e 167 432
e 167 435
e 167 526
e 167 534
e 167 551
e 167 568
e 167 615
e 167 628
e 167 660
e 167 693
e 167 697
e 167 709
e 167 770
e 167 844
e 167 899
e 167 991
e 168 258
e 168 261
e 168 289
e 168 325
e 168 392
e 168 442
e 168 459
e 168 481
e 168 491
e 168 572
e 168 585
e 168 596
e 168 613
e 168 626
e 168 627
e 168 818
e 168 827
e 168 930
e 168 975
e 169 257
e 169 334
e 169 342
e 169 343
e 169 359
e 169 398
e 169 411
e 169 440
e 169 475
e 169 483
e 169 501
e 169 567
e 169 581
e 169 593
e 169 614
e 169 630
e 169 644
e 169 647
e 169 680
e 169 692
e 169 717
e 169 718
e 169 722
e 169 734
e 169 745
e 169 769
e 169 794
e 169 889
e 169 965
e 169 981
e 169 984
e 169 988
e 170 265
e 170 280
e 170 281
e 170 306
e 170 317
e 170 318
e 170 332
e 170 498
e 170 521
e 170 553
e 170 564
e 170 591
e 170 783
e 170 787
e 170 800
e 170 822
e 170 830
e 170 848
e 170 855
e 170 890
e 170 917
e 170 943
e 170 944
e 170 969
e 171 284
e 171 287
e 171 290
e 171 346
e 171 378
e 171 383
e 171 401
e 171 413
e 171 424
e 171 445
e 171 466
e 171 471
e 171 497
e 171 583
e 171 625
e 171 640
e 171 666
e 171 724
e 171 747
e 171 762
e 171 783
e 171 912
e 171 945
e 171 953
e 172 314
e 172 316
e 172 323
e 172 359
e 172 374
e 172 401
e 172 403
e 172 527
e 172 548
e 172 571
e 172 625
e 172 690
e 172 699
e 172 731
e 172 751
e 172 765
e 172 881
e 172 885
e 172 896
e 172 911
e 172 964
e 173 251
e 173 257
e 173 326
e 173 361
e 173 394
e 173 414
e 173 450
e 173 499
e 173 518
e 173 583
e 173 584
e 173 591
e 173 618
e 173 622
e 173 652
e 173 659
e 173 669
e 173 684
e 173 696
e 173 734
e 173 776
e 173 786
e 173 842
e 173 850
e 173 851
e 173 910
e 173 972
e 173 988
e 174 314
e 174 335
e 174 347
e 174 376
e 174 378
e 174 471
e 174 484
e 174 610
e 174 617
e 174 655
e 174 692
e 174 719
e 174 784
e 174 798
e 174 835
e 174 862
e 174 881
e 174 885
e 174 930
e 174 937
e 174 939
e 174 958
e 174 965
e 174 981
e 174 1000
e 175 270
e 175 286
e 175 379
e 175 403
e 175 422
e 175 461
e 175 483
e 175 521
e 175 594
e 175 615
e 175 632
e 175 636
e 175 641
e 175 660
e 175 664
e 175 697
e 175 717
e 175 726
e 175 750
e 175 756
e 175 781
e 175 786
e 175 800
e 175 802
e 175 855
e 175 906
e 175 915
e 175 921
e 175 939
e 175 999
e 176 261
e 176 268
e 176 273
e 176 318
e 176 325
e 176 368
e 176 453
e 176 467
e 176 493
e 176 498
e 176 517
e 176 582
e 176 588
e 176 685
e 176 744
e 176 834
e 176 853
e 176 872
e 176 992
e 177 251
e 177 300
e 177 328
e 177 364
e 177 409
e 177 559
e 177 604
e 177 636
e 177 639
e 177 668
e 177 730
e 177 748
e 177 754
e 177 762
e 177 843
e 177 871
e 178 276
e 178 315
e 178 327
e 178 351
e 178 412
e 178 424
e 178 440
e 178 443
e 178 447
e 178 455
e 178 512
e 178 515
e 178 535
e 178 542
e 178 595
e 178 627
e 178 741
e 178 782
e 178 825
e 178 837
e 178 868
e 178 989
e 179 303
e 179 374
e 179 431
e 179 482
e 179 523
e 179 556
e 179 561
e 179 573
e 179 585
e 179 625
e 179 643
e 179 703
e 179 719
e 179 727
e 179 830
e 179 841
e 179 843
e 179 862
e 179 863
e 179 907
e 179 908
e 179 954
e 179 971
e 179 974
e 179 985
e 180 278
e 180 284
e 180 294
e 180 340
e 180 371
e 180 379
e 180 385
e 180 428
e 180 501
e 180 574
e 180 606
e 180 644
e 180 649
e 180 651
e 180 741
e 180 742
e 180 820
e 180 844
e 180 895
e 180 912
e 180 938
e 180 939
e 180 947
e 181 273
e 181 288
e 181 310
e 181 316
e 181 352
e 181 482
e 181 484
e 181 485
e 181 522
e 181 535
e 181 569
e 181 589
e 181 624
e 181 629
e 181 639
e 181 706
e 181 750
e 181 763
e 181 786
e 181 939
e 181 986
e 182 291
e 182 292
e 182 297
e 182 300
e 182 339
e 182 365
e 182 392
e 182 407
e 182 461
e 182 488
e 182 525
e 182 530
e 182 606
e 182 610
e 182 620
e 182 645
e 182 685
e 182 695
e 182 730
e 182 786
e 182 873
e 182 950
e 182 951
e 182 964
e 182 989
e 182 993
e 183 269
e 183 278
e 183 367
e 183 401
e 183 405
e 183 419
e 183 525
e 183 547
e 183 548
e 183 553
e 183 601
e 183 655
e 183 704
e 183 728
e 183 729
e 183 877
e 183 895
e 183 940
e 183 941
e 183 994
e 183 997
e 184 285
e 184 293
e 184 307
e 184 330
e 184 351
e 184 374
e 184 390
e 184 404
e 184 467
e 184 481
e 184 533
e 184 592
e 184 603
e 184 613
e 184 640
e 184 681
e 184 719
e 184 751
e 184 786
e 184 815
e 184 910
e 184 940
e 185 256
e 185 307
e 185 332
e 185 376
e 185 453
e 185 466
e 185 512
e 185 516
e 185 528
e 185 584
e 185 587
e 185 588
e 185 593
e 185 650
e 185 655
e 185 673
e 185 713
e 185 725
e 185 735
e 185 753
e 185 766
e 185 827
e 185 847
e 185 887
e 185 903
e 185 904
e 185 920
e 185 926
e 185 935
e 185 953
e 186 267
e 186 274
e 186 305
e 186 309
e 186 313
e 186 446
e 186 493
e 186 495
e 186 504
e 186 536
e 186 558
e 186 618
e 186 643
e 186 672
e 186 675
e 186 733
e 186 767
e 186 784
e 186 804
e 186 851
e 186 857
e 186 869
e 186 900
e 186 986
e 187 272
e 187 304
e 187 388
e 187 461
e 187 467
e 187 470
e 187 480
e 187 540
e 187 584
e 187 631
e 187 694
e 187 744
e 187 793
e 187 932
e 187 974
e 187 981
e 188 254
e 188 270
e 188 278
e 188 293
e 188 322
e 188 324
e 188 329
e 188 359
e 188 481
e 188 539
e 188 570
e 188 634
e 188 694
e 188 716
e 188 744
e 188 748
e 188 835
e 188 844
e 188 889
e 188 910
e 188 916
e 188 921
e 188 933
e 188 944
e 188 955
e 188 978
e 188 995
e 189 261
e 189 276
e 189 282
e 189 289
e 189 313
e 189 322
e 189 344
e 189 360
e 189 367
e 189 387
e 189 411
e 189 414
e 189 427
e 189 429
e 189 442
e 189 476
e 189 534
e 189 592
e 189 603
e 189 623
e 189 657
e 189 669
e 189 671
e 189 674
e 189 675
e 189 685
e 189 700
e 189 716
e 189 734
e 189 742
e 189 752
e 189 777
e 189 782
e 189 798
e 189 810
e 189 822
e 189 827
e 189 829
e 189 835
e 189 918
e 189 945
e 189 977
e 189 988
e 190 271
e 190 415
e 190 431
e 190 487
e 190 503
e 190 519
e 190 524
e 190 530
e 190 548
e 190 567
e 190 585
e 190 593
e 190 651
e 190 652
e 190 721
e 190 793
e 190 795
e 190 803
e 190 809
e 190 826
e 190 852
e 190 896
e 190 958
e 190 975
e 190 991
e 190 993
e 191 274
e 191 277
e 191 301
e 191 310
e 191 314
e 191 351
e 191 356
e 191 368
e 191 374
e 191 381
e 191 420
e 191 440
e 191 445
e 191 564
e 191 643
e 191 646
e 191 648
e 191 650
e 191 651
e 191 706
e 191 788
e 191 801
e 191 806
e 191 938
e 191 944
e 191 971
e 191 987
e 192 253
e 192 293
e 192 299
e 192 316
e 192 328
e 192 451
e 192 456
e 192 460
e 192 500
e 192 525
e 192 532
e 192 552
e 192 589
e 192 591
e 192 628
e 192 674
e 192 701
e 192 707
e 192 736
e 192 783
e 192 813
e 192 834
e 192 854
e 192 880
e 192 905
e 192 910
e 192 943
e 193 271
e 193 284
e 193 296
e 193 298
e 193 342
e 193 346
e 193 424
e 193 451
e 193 579
e 193 582
e 193 613
e 193 738
e 193 754
e 193 762
e 193 768
e 193 772
e 193 782
e 193 829
e 193 875
e 193 877
e 193 911
e 193 916
e 194 272
e 194 281
e 194 295
e 194 326
e 194 341
e 194 359
e 194 372
e 194 387
e 194 391
e 194 415
e 194 432
e 194 435
e 194 439
e 194 456
e 194 491
e 194 523
e 194 548
e 194 561
e 194 595
e 194 599
e 194 729
e 194 737
e 194 743
e 194 764
e 194 778
e 194 797
e 194 809
e 194 849
e 194 884
e 194 917
e 194 945
e 194 989
e 195 273
e 195 278
e 195 281
e 195 291
e 195 300
e 195 316
e 195 365
e 195 413
e 195 423
e 195 450
e 195 457
e 195 462
e 195 560
e 195 698
e 195 709
e 195 724
e 195 726
e 195 737
e 195 791
e 195 803
e 195 910
e 195 911
e 195 956
e 196 257
e 196 264
e 196 293
e 196 302
e 196 364
e 196 368
e 196 468
e 196 507
e 196 525
e 196 538
e 196 543
e 196 545
e 196 561
e 196 588
e 196 598
e 196 607
e 196 638
e 196 650
e 196 656
e 196 658
e 196 735
e 196 761
e 196 833
e 196 849
e 196 883
e 196 915
e 196 922
e 196 936
e 197 256
e 197 279
e 197 287
e 197 347
e 197 352
e 197 377
e 197 396
e 197 410
e 197 418
e 197 443
e 197 452
e 197 494
e 197 502
e 197 566
e 197 581
e 197 604
e 197 610
e 197 643
e 197 665
e 197 772
e 197 841
e 197 855
e 197 869
e 197 967
e 198 332
e 198 352
e 198 385
e 198 419
e 198 441
e 198 448
e 198 501
e 198 523
e 198 538
e 198 543
e 198 587
e 198 706
e 198 713
e 198 747
e 198 779
e 198 790
e 198 805
e 198 823
e 198 887
e 198 910
e 198 993
e 199 268
e 199 301
e 199 322
e 199 330
e 199 347
e 199 371
e 199 390
e 199 421
e 199 477
e 199 503
e 199 527
e 199 528
e 199 557
e 199 559
e 199 580
e 199 614
e 199 624
e 199 651
e 199 725
e 199 741
e 199 908
e 199 910
e 199 939
e 199 959
e 199 984
e 200 310
e 200 337
e 200 347
e 200 354
e 200 379
e 200 433
e 200 475
e 200 485
e 200 543
e 200 557
e 200 585
e 200 601
e 200 626
e 200 685
e 200 690
e 200 696
e 200 724
e 200 754
e 200 772
e 200 804
e 200 857
e 200 925
e 200 961
e 200 976
e 200 999
e 201 318
e 201 358
e 201 387
e 201 453
e 201 472
e 201 516
e 201 518
e 201 544
e 201 574
e 201 575
e 201 603
e 201 606
e 201 621
e 201 662
e 201 663
e 201 775
e 201 816
e 201 854
e 201 880
e 201 891
e 201 902
e 201 961
e 201 982
e 202 254
e 202 272
e 202 333
e 202 437
e 202 470
e 202 473
e 202 518
e 202 553
e 202 603
e 202 718
e 202 721
e 202 828
e 202 891
e 202 893
e 202 921
e 202 927
e 202 951
e 202 966
e 202 969
e 203 254
e 203 289
e 203 343
e 203 460
e 203 478
e 203 568
e 203 726
e 203 761
e 203 811
e 203 818
e 203 851
e 203 918
e 203 952
e 203 978
e 204 275
e 204 284
e 204 344
e 204 369
e 204 428
e 204 459
e 204 498
e 204 533
e 204 550
e 204 566
e 204 575
e 204 618
e 204 629
e 204 639
e 204 766
e 204 779
e 204 804
e 204 871
e 204 889
e 204 918
e 204 921
e 204 952
e 204 959
e 204 986
e 205 291
e 205 307
e 205 357
e 205 375
e 205 398
e 205 525
e 205 570
e 205 603
e 205 607
e 205 608
e 205 660
e 205 766
e 205 787
e 205 817
e 205 835
e 205 850
e 205 869
e 205 880
e 205 885
e 205 900
e 205 911
e 205 924
e 205 932
e 205 959
e 205 999
e 206 281
e 206 307
e 206 322
e 206 341
e 206 344
e 206 388
e 206 417
e 206 423
e 206 424
e 206 435
e 206 441
e 206 457
e 206 495
e 206 511
e 206 535
e 206 551
e 206 559
e 206 640
e 206 670
e 206 676
e 206 711
e 206 734
e 206 806
e 206 818
e 206 824
e 206 848
e 206 857
e 206 861
e 206 907
e 206 966
e 206 971
e 206 993
e 207 278
e 207 284
e 207 362
e 207 398
e 207 442
e 207 471
e 207 472
e 207 495
e 207 567
e 207 580
e 207 587
e 207 619
e 207 659
e 207 661
e 207 674
e 207 700
e 207 769
e 207 813
e 207 873
e 207 987
e 207 988
e 208 256
e 208 343
e 208 382
e 208 383
e 208 391
e 208 407
e 208 413
e 208 526
e 208 552
e 208 630
e 208 685
e 208 714
e 208 743
e 208 817
e 208 837
e 208 877
e 208 909
e 209 254
e 209 277
e 209 294
e 209 307
e 209 370
e 209 417
e 209 463
e 209 474
e 209 510
e 209 528
e 209 547
e 209 552
e 209 581
e 209 622
e 209 629
e 209 630
e 209 743
e 209 760
e 209 785
e 209 832
e 209 869
e 209 879
e 209 902
e 209 914
e 209 926
e 209 983
e 209 987
e 210 264
e 210 282
e 210 301
e 210 320
e 210 344
e 210 380
e 210 406
e 210 416
e 210 426
e 210 504
e 210 547
e 210 598
e 210 603
e 210 615
e 210 707
e 210 712
e 210 742
e 210 775
e 210 781
e 210 800
e 210 802
e 210 872
e 210 878
e 210 951
e 210 960
e 210 965
e 211 286
e 211 309
e 211 317
e 211 389
e 211 393
e 211 428
e 211 483
e 211 492
e 211 518
e 211 563
e 211 610
e 211 620
e 211 665
e 211 668
e 211 758
e 211 795
e 211 820
e 211 827
e 211 863
e 211 870
e 211 872
e 211 895
e 211 900
e 211 929
e 212 272
e 212 277
e 212 326
e 212 351
e 212 388
e 212 479
e 212 489
e 212 500
e 212 510
e 212 528
e 212 540
e 212 643
e 212 685
e 212 750
e 212 789
e 212 809
e 212 848
e 212 913
e 212 914
e 212 955
e 212 974
e 213 291
e 213 330
e 213 384
e 213 440
e 213 524
e 213 557
e 213 588
e 213 657
e 213 667
e 213 694
e 213 734
e 213 736
e 213 774
e 213 782
e 213 843
e 213 872
e 213 906
e 213 975
e 213 985
e 214 281
e 214 292
e 214 295
e 214 315
e 214 316
e 214 319
e 214 333
e 214 354
e 214 366
e 214 390
e 214 461
e 214 519
e 214 546
e 214 553
e 214 649
e 214 676
e 214 717
e 214 750
e 214 751
e 214 804
e 214 832
e 214 840
e 214 856
e 214 879
e 214 899
e 214 949
e 214 975
e 215 267
e 215 275
e 215 302
e 215 303
e 215 340
e 215 344
e 215 368
e 215 417
e 215 454
e 215 466
e 215 469
e 215 540
e 215 662
e 215 687
e 215 719
e 215 738
e 215 754
e 215 760
e 215 801
e 215 812
e 215 827
e 215 848
e 215 903
e 215 908
e 215 942
e 215 954
e 215 992
e 216 274
e 216 275
e 216 301
e 216 317
e 216 321
e 216 325
e 216 356
e 216 365
e 216 416
e 216 526
e 216 551
e 216 602
e 216 603
e 216 716
e 216 752
e 216 761
e 216 818
e 216 866
e 216 890
e 216 908
e 216 928
e 216 930
e 217 251
e 217 299
e 217 303
e 217 372
e 217 447
e 217 471
e 217 559
e 217 597
e 217 599
e 217 660
e 217 704
e 217 709
e 217 765
e 217 803
e 217 859
e 217 883
e 218 282
e 218 367
e 218 390
e 218 393
e 218 431
e 218 441
e 218 521
e 218 529
e 218 571
e 218 620
e 218 665
e 218 784
e 218 871
e 218 876
e 218 881
e 218 907
e 218 909
e 218 919
e 218 987
e 218 991
e 218 999
e 219 258
e 219 289
e 219 350
e 219 414
e 219 420
e 219 485
e 219 539
e 219 562
e 219 570
e 219 632
e 219 644
e 219 649
e 219 687
e 219 751
e 219 753
e 219 825
e 219 859
e 219 880
e 219 904
e 219 965
e 219 996
e 219 997
e 220 269
e 220 320
e 220 402
e 220 407
e 220 435
e 220 499
e 220 527
e 220 533
e 220 553
e 220 613
e 220 669
e 220 672
e 220 742
e 220 767
e 220 798
e 221 278
e 221 312
e 221 356
e 221 365
e 221 381
e 221 423
e 221 462
e 221 490
e 221 537
e 221 551
e 221 570
e 221 601
e 221 717
e 221 753
e 221 787
e 221 795
e 221 798
e 221 799
e 221 859
e 221 882
e 221 943
e 221 951
e 221 994
e 222 263
e 222 267
e 222 339
e 222 341
e 222 345
e 222 358
e 222 392
e 222 405
e 222 452
e 222 655
e 222 669
e 222 703
e 222 712
e 222 726
e 222 778
e 222 810
e 222 834
e 222 847
e 222 889
e 222 893
e 222 907
e 222 919
e 222 970
e 222 987
e 223 336
e 223 347
e 223 426
e 223 430
e 223 446
e 223 456
e 223 500
e 223 561
e 223 598
e 223 619
e 223 659
e 223 679
e 223 701
e 223 796
e 223 856
e 223 871
e 223 925
e 223 940
e 223 953
e 223 978
e 223 983
e 224 257
e 224 276
e 224 291
e 224 333
e 224 349
e 224 353
e 224 395
e 224 442
e 224 443
e 224 519
e 224 552
e 224 575
e 224 609
e 224 617
e 224 665
e 224 668
e 224 703
e 224 710
e 224 743
e 224 775
e 224 803
e 224 814
e 224 847
e 224 855
e 224 887
e 224 905
e 224 963
e 225 253
e 225 339
e 225 359
e 225 360
e 225 439
e 225 487
e 225 500
e 225 501
e 225 519
e 225 547
e 225 552
e 225 565
e 225 614
e 225 632
e 225 740
e 225 749
e 225 774
e 225 775
e 225 798
e 225 813
e 225 845
e 225 861
e 225 920
e 225 922
e 225 923
e 225 947
e 225 986
e 226 258
e 226 314
e 226 343
e 226 400
e 226 417
e 226 471
e 226 479
e 226 499
e 226 515
e 226 529
e 226 560
e 226 570
e 226 574
e 226 580
e 226 592
e 226 604
e 226 646
e 226 651
e 226 656
e 226 687
e 226 762
e 226 782
e 226 848
e 226 872
e 226 920
e 226 931
e 226 933
e 226 951
e 226 968
e 226 970
e 226 1000
e 227 288
e 227 323
e 227 366
e 227 398
e 227 433
e 227 446
e 227 475
e 227 497
e 227 520
e 227 549
e 227 678
e 227 759
e 227 766
e 227 772
e 227 790
e 227 868
e 227 872
e 227 881
e 227 948
e 227 993
e 228 251
e 228 260
e 228 269
e 228 288
e 228 293
e 228 422
e 228 488
e 228 500
e 228 537
e 228 559
e 228 621
e 228 709
e 228 711
e 228 768
e 228 787
e 228 795
e 228 808
e 228 818
e 228 822
e 228 837
e 228 872
e 228 878
e 228 889
e 228 897
e 228 916
e 228 936
e 228 961
e 228 978
e 228 979
e 229 285
e 229 288
e 229 331
e 229 344
e 229 366
e 229 428
e 229 455
e 229 519
e 229 539
e 229 584
e 229 613
e 229 634
e 229 677
e 229 689
e 229 771
e 229 822
e 229 847
e 229 891
e 229 922
e 229 938
e 229 944
e 230 256
e 230 295
e 230 334
e 230 391
e 230 404
e 230 444
e 230 469
e 230 480
e 230 493
e 230 498
e 230 662
e 230 780
e 230 809
e 230 815
e 230 854
e 230 892
e 230 992
e 231 284
e 231 347
e 231 367
e 231 434
e 231 490
e 231 518
e 231 548
e 231 584
e 231 585
e 231 609
e 231 618
e 231 625
e 231 694
e 231 724
e 231 741
e 231 742
e 231 757
e 231 862
e 231 897
e 231 925
e 231 932
e 231 973
e 231 998
e 232 284
e 232 311
e 232 331
e 232 347
e 232 349
e 232 390
e 232 409
e 232 447
e 232 553
e 232 571
e 232 575
e 232 580
e 232 587
e 232 638
e 232 645
e 232 649
e 232 664
e 232 794
e 232 868
e 232 975
e 232 976
e 232 982
e 232 997
e 233 304
e 233 308
e 233 309
e 233 374
e 233 396
e 233 457
e 233 509
e 233 547
e 233 613
e 233 655
e 233 694
e 233 757
e 233 778
e 233 797
e 233 938
e 233 970
e 234 254
e 234 304
e 234 329
e 234 466
e 234 526
e 234 557
e 234 577
e 234 664
e 234 685
e 234 707
e 234 745
e 234 784
e 234 834
e 235 261
e 235 354
e 235 450
e 235 482
e 235 542
e 235 553
e 235 670
e 235 675
e 235 696
e 235 784
e 235 836
e 235 846
e 235 897
e 235 931
e 235 954
e 235 977
e 235 981
e 236 258
e 236 271
e 236 277
e 236 374
e 236 381
e 236 451
e 236 459
e 236 473
e 236 479
e 236 531
e 236 542
e 236 560
e 236 568
e 236 569
e 236 619
e 236 623
e 236 759
e 236 772
e 236 826
e 236 853
e 236 895
e 236 950
e 236 962
e 236 997
e 237 323
e 237 326
e 237 368
e 237 433
e 237 460
e 237 498
e 237 523
e 237 549
e 237 594
e 237 595
e 237 643
e 237 699
e 237 736
e 237 745
e 237 847
e 237 854
e 237 900
e 237 909
e 238 272
e 238 300
e 238 332
e 238 344
e 238 419
e 238 452
e 238 468
e 238 533
e 238 546
e 238 572
e 238 608
e 238 636
e 238 660
e 238 711
e 238 712
e 238 723
e 238 743
e 238 787
e 238 789
e 238 865
e 238 876
e 238 897
e 238 905
e 238 922
e 238 933
e 238 935
e 238 937
e 238 957
e 239 286
e 239 306
e 239 326
e 239 358
e 239 370
e 239 377
e 239 378
e 239 440
e 239 460
e 239 496
e 239 499
e 239 541
e 239 587
e 239 635
e 239 656
e 239 680
e 239 718
e 239 720
e 239 732
e 239 769
e 239 901
e 239 975
e 240 262
e 240 274
e 240 294
e 240 307
e 240 308
e 240 336
e 240 363
e 240 374
e 240 439
e 240 461
e 240 569
e 240 581
e 240 586
e 240 597
e 240 709
e 240 762
e 240 824
e 240 831
e 240 844
e 240 853
e 240 871
e 241 277
e 241 342
e 241 371
e 241 392
e 241 473
e 241 533
e 241 534
e 241 656
e 241 672
e 241 739
e 241 747
e 241 755
e 241 797
e 241 840
e 241 866
e 241 896
e 241 981
e 241 989
e 242 285
e 242 300
e 242 310
e 242 317
e 242 330
e 242 346
e 242 355
e 242 400
e 242 415
e 242 451
e 242 494
e 242 509
e 242 582
e 242 612
e 242 659
e 242 695
e 242 706
e 242 764
e 242 841
e 242 904
e 242 955
e 242 979
e 242 981
e 243 284
e 243 313
e 243 343
e 243 404
e 243 413
e 243 422
e 243 465
e 243 491
e 243 523
e 243 549
e 243 558
e 243 617
e 243 638
e 243 658
e 243 701
e 243 733
e 243 845
e 243 871
e 243 919
e 243 929
e 243 930
e 244 285
e 244 426
e 244 447
e 244 483
e 244 499
e 244 503
e 244 545
e 244 549
e 244 577
e 244 673
e 244 805
e 244 830
e 244 845
e 244 856
e 244 881
e 244 972
e 245 284
e 245 289
e 245 320
e 245 348
e 245 389
e 245 407
e 245 425
e 245 432
e 245 444
e 245 471
e 245 487
e 245 498
e 245 536
e 245 601
e 245 644
e 245 682
e 245 774
e 245 777
e 245 802
e 245 884
e 245 917
e 245 946
e 246 272
e 246 308
e 246 311
e 246 388
e 246 389
e 246 400
e 246 402
e 246 411
e 246 426
e 246 535
e 246 590
e 246 595
e 246 667
e 246 736
e 246 777
e 246 801
e 246 885
e 247 396
e 247 399
e 247 405
e 247 406
e 247 426
e 247 452
e 247 470
e 247 521
e 247 534
e 247 542
e 247 613
e 247 671
e 247 809
e 247 834
e 247 900
e 247 931
e 247 990
e 247 991
e 248 267
e 248 281
e 248 325
e 248 377
e 248 408
e 248 542
e 248 546
e 248 581
e 248 648
e 248 654
e 248 763
e 248 870
e 248 891
e 248 907
e 248 917
e 248 945
e 249 264
e 249 271
e 249 312
e 249 314
e 249 374
e 249 381
e 249 421
e 249 480
e 249 505
e 249 573
e 249 584
e 249 758
e 249 828
e 249 866
e 249 968
e 249 983
e 249 994
e 250 271
e 250 291
e 250 298
e 250 356
e 250 388
e 250 410
e 250 506
e 250 576
e 250 616
e 250 621
e 250 632
e 250 634
e 250 662
e 250 670
e 250 673
e 250 758
e 250 771
e 250 789
e 250 810
e 250 814
e 250 851
e 250 852
e 250 950
e 250 987
