p edge 1000 9407
e 1 253
e 1 261
e 1 283
e 1 310
e 1 357
e 1 367
e 1 378
e 1 395
e 1 408
e 1 431
e 1 446
e 1 451
e 1 475
e 1 504
e 1 529
e 1 531
e 1 539
e 1 559
e 1 564
e 1 607
e 1 635
e 1 652
e 1 673
e 1 737
e 1 753
e 1 813
e 1 868
e 1 869
e 1 885
e 1 892
e 1 924
e 1 934
e 1 942
e 1 971
e 1 976
e 1 979
e 1 980
e 1 986
e 2 285
e 2 287
e 2 325
e 2 341
e 2 359
e 2 382
e 2 385
e 2 434
e 2 436
e 2 438
e 2 470
e 2 498
e 2 545
e 2 558
e 2 571
e 2 657
e 2 676
e 2 743
e 2 759
e 2 805
e 2 814
e 2 894
e 2 935
e 2 952
e 2 991
e 3 252
e 3 265
e 3 336
e 3 387
e 3 389
e 3 412
e 3 432
e 3 450
e 3 469
e 3 499
e 3 503
e 3 519
e 3 523
e 3 552
e 3 553
e 3 566
e 3 613
e 3 631
e 3 632
e 3 668
e 3 702
e 3 722
e 3 724
e 3 726
e 3 730
e 3 737
e 3 753
e 3 762
e 3 785
e 3 800
e 3 850
e 3 865
e 3 866
e 3 873
e 3 926
e 3 947
e 3 951
e 3 964
e 3 976
e 3 987
e 4 252
e 4 293
e 4 300
e 4 337
e 4 370
e 4 382
e 4 403
e 4 444
e 4 495
e 4 503
e 4 552
e 4 555
e 4 577
e 4 597
e 4 605
e 4 607
e 4 609
e 4 619
e 4 623
e 4 636
e 4 648
e 4 678
e 4 688
e 4 689
e 4 723
e 4 746
e 4 814
e 4 831
e 4 853
e 4 875
e 4 887
e 4 925
e 4 952
e 4 955
e 4 964
e 5 261
e 5 342
e 5 344
e 5 347
e 5 365
e 5 433
e 5 482
e 5 483
e 5 487
e 5 495
e 5 537
e 5 542
e 5 546
e 5 547
e 5 581
e 5 587
e 5 610
e 5 640
e 5 667
e 5 675
e 5 690
e 5 696
e 5 710
e 5 759
e 5 760
e 5 771
e 5 790
e 5 796
e 5 809
e 5 811
e 5 816
e 5 833
e 5 865
e 5 868
e 5 888
e 5 923
e 5 971
e 6 263
e 6 266
e 6 286
e 6 308
e 6 330
e 6 385
e 6 409
e 6 434
e 6 487
e 6 504
e 6 511
e 6 541
e 6 543
e 6 571
e 6 612
e 6 617
e 6 624
e 6 628
e 6 684
e 6 736
e 6 765
e 6 768
e 6 793
e 6 810
e 6 813
e 6 826
e 6 828
e 6 872
e 6 878
e 6 898
e 6 962
e 6 963
e 6 973
e 6 988
e 6 997
e 7 276
e 7 278
e 7 298
e 7 301
e 7 319
e 7 341
e 7 344
e 7 346
e 7 358
e 7 400
e 7 405
e 7 475
e 7 498
e 7 503
e 7 523
e 7 524
e 7 532
e 7 544
e 7 594
e 7 637
e 7 638
e 7 647
e 7 680
e 7 735
e 7 737
e 7 741
e 7 753
e 7 779
e 7 827
e 7 838
e 7 844
e 7 853
e 7 854
e 7 879
e 7 897
e 7 899
e 7 913
e 7 926
e 7 948
e 7 957
e 7 968
e 8 251
e 8 255
e 8 257
e 8 267
e 8 282
e 8 288
e 8 311
e 8 323
e 8 332
e 8 334
e 8 339
e 8 378
e 8 393
e 8 411
e 8 413
e 8 418
e 8 444
e 8 449
e 8 451
e 8 556
e 8 575
e 8 585
e 8 629
e 8 633
e 8 637
e 8 648
e 8 730
e 8 764
e 8 768
e 8 785
e 8 793
e 8 806
e 8 813
e 8 831
e 8 849
e 8 922
e 8 929
e 8 931
e 8 950
e 8 982
e 8 995
e 9 274
e 9 296
e 9 400
e 9 429
e 9 432
e 9 474
e 9 492
e 9 511
e 9 517
e 9 527
e 9 544
e 9 566
e 9 578
e 9 608
e 9 614
e 9 620
e 9 676
e 9 689
e 9 692
e 9 700
e 9 717
e 9 727
e 9 730
e 9 755
e 9 758
e 9 793
e 9 799
e 9 800
e 9 853
e 9 878
e 9 893
e 9 915
e 9 917
e 9 931
e 9 936
e 9 942
e 9 948
e 9 949
e 9 1000
e 10 254
e 10 265
e 10 304
e 10 306
e 10 342
e 10 351
e 10 355
e 10 361
e 10 364
e 10 368
e 10 387
e 10 393
e 10 411
e 10 433
e 10 442
e 10 452
e 10 459
e 10 465
e 10 486
e 10 513
e 10 514
e 10 516
e 10 521
e 10 536
e 10 559
e 10 581
e 10 585
e 10 599
e 10 634
e 10 650
e 10 685
e 10 723
e 10 747
e 10 748
e 10 761
e 10 763
e 10 810
e 10 837
e 10 845
e 10 868
e 10 888
e 10 891
e 10 936
e 10 943
e 10 959
e 10 994
e 11 251
e 11 307
e 11 320
e 11 334
e 11 357
e 11 373
e 11 400
e 11 409
e 11 424
e 11 427
e 11 437
e 11 443
e 11 459
e 11 461
e 11 477
e 11 496
e 11 499
e 11 526
e 11 533
e 11 534
e 11 562
e 11 581
e 11 620
e 11 656
e 11 664
e 11 675
e 11 691
e 11 713
e 11 718
e 11 735
e 11 750
e 11 779
e 11 793
e 11 799
e 11 807
e 11 808
e 11 875
e 11 890
e 11 904
e 11 923
e 11 933
e 11 952
e 11 956
e 11 958
e 11 964
e 11 971
e 11 998
e 12 259
e 12 261
e 12 268
e 12 283
e 12 298
e 12 314
e 12 320
e 12 323
e 12 332
e 12 363
e 12 445
e 12 475
e 12 504
e 12 514
e 12 534
e 12 535
e 12 542
e 12 548
e 12 564
e 12 591
e 12 595
e 12 607
e 12 614
e 12 615
e 12 616
e 12 659
e 12 665
e 12 676
e 12 695
e 12 701
e 12 715
e 12 759
e 12 805
e 12 813
e 12 827
e 12 840
e 12 845
e 12 850
e 12 880
e 12 914
e 12 915
e 12 940
e 12 968
e 12 981
e 13 258
e 13 272
e 13 390
e 13 393
e 13 394
e 13 405
e 13 406
e 13 414
e 13 417
e 13 437
e 13 462
e 13 466
e 13 511
e 13 550
e 13 552
e 13 575
e 13 594
e 13 620
e 13 646
e 13 657
e 13 664
e 13 679
e 13 715
e 13 739
e 13 761
e 13 805
e 13 817
e 13 864
e 13 866
e 13 875
e 13 876
e 13 880
e 13 889
e 13 895
e 13 912
e 13 919
e 13 947
e 13 963
e 13 987
e 14 262
e 14 276
e 14 289
e 14 321
e 14 339
e 14 385
e 14 389
e 14 405
e 14 425
e 14 445
e 14 483
e 14 495
e 14 506
e 14 511
e 14 522
e 14 553
e 14 569
e 14 572
e 14 592
e 14 680
e 14 694
e 14 715
e 14 720
e 14 722
e 14 724
e 14 734
e 14 736
e 14 752
e 14 809
e 14 817
e 14 820
e 14 862
e 14 874
e 14 880
e 14 920
e 14 932
e 14 957
e 14 965
e 14 976
e 14 985
e 15 262
e 15 286
e 15 310
e 15 346
e 15 366
e 15 379
e 15 426
e 15 433
e 15 441
e 15 447
e 15 487
e 15 491
e 15 527
e 15 571
e 15 583
e 15 590
e 15 599
e 15 603
e 15 617
e 15 618
e 15 619
e 15 632
e 15 638
e 15 702
e 15 704
e 15 754
e 15 798
e 15 833
e 15 865
e 15 886
e 15 894
e 15 900
e 15 906
e 15 909
e 15 910
e 15 932
e 15 981
e 16 251
e 16 340
e 16 344
e 16 347
e 16 373
e 16 393
e 16 398
e 16 482
e 16 484
e 16 496
e 16 512
e 16 513
e 16 521
e 16 569
e 16 588
e 16 601
e 16 604
e 16 611
e 16 649
e 16 657
e 16 674
e 16 707
e 16 711
e 16 763
e 16 780
e 16 796
e 16 802
e 16 827
e 16 836
e 16 846
e 16 865
e 16 880
e 16 898
e 16 912
e 16 928
e 16 940
e 17 259
e 17 302
e 17 347
e 17 423
e 17 493
e 17 512
e 17 586
e 17 637
e 17 641
e 17 654
e 17 657
e 17 669
e 17 719
e 17 721
e 17 731
e 17 772
e 17 773
e 17 816
e 17 852
e 17 862
e 17 871
e 17 899
e 17 931
e 17 937
e 17 950
e 17 951
e 17 979
e 18 260
e 18 276
e 18 297
e 18 320
e 18 353
e 18 385
e 18 390
e 18 391
e 18 517
e 18 522
e 18 543
e 18 546
e 18 547
e 18 568
e 18 571
e 18 594
e 18 647
e 18 695
e 18 709
e 18 710
e 18 713
e 18 722
e 18 734
e 18 735
e 18 812
e 18 824
e 18 827
e 18 845
e 18 881
e 18 901
e 18 911
e 18 930
e 18 943
e 18 948
e 18 973
e 18 977
e 18 981
e 18 990
e 18 996
e 18 1000
e 19 267
e 19 305
e 19 312
e 19 330
e 19 370
e 19 377
e 19 378
e 19 390
e 19 419
e 19 462
e 19 531
e 19 566
e 19 579
e 19 586
e 19 591
e 19 605
e 19 610
e 19 632
e 19 652
e 19 690
e 19 696
e 19 702
e 19 703
e 19 746
e 19 802
e 19 836
e 19 854
e 19 857
e 19 872
e 19 875
e 19 908
e 19 955
e 19 975
e 20 254
e 20 257
e 20 269
e 20 295
e 20 359
e 20 378
e 20 380
e 20 400
e 20 408
e 20 480
e 20 510
e 20 528
e 20 530
e 20 534
e 20 584
e 20 592
e 20 609
e 20 643
e 20 648
e 20 662
e 20 684
e 20 724
e 20 726
e 20 782
e 20 791
e 20 805
e 20 820
e 20 822
e 20 845
e 20 860
e 20 861
e 20 884
e 20 894
e 20 895
e 20 917
e 20 918
e 20 919
e 20 934
e 20 936
e 20 944
e 20 968
e 20 973
e 20 980
e 21 261
e 21 264
e 21 278
e 21 332
e 21 363
e 21 397
e 21 418
e 21 419
e 21 437
e 21 450
e 21 485
e 21 525
e 21 555
e 21 556
e 21 572
e 21 580
e 21 594
e 21 612
e 21 618
e 21 639
e 21 640
e 21 654
e 21 678
e 21 698
e 21 716
e 21 793
e 21 797
e 21 813
e 21 872
e 21 878
e 21 894
e 21 917
e 21 919
e 21 966
e 21 974
e 21 990
e 22 255
e 22 258
e 22 279
e 22 286
e 22 316
e 22 318
e 22 340
e 22 360
e 22 368
e 22 382
e 22 396
e 22 425
e 22 437
e 22 450
e 22 466
e 22 469
e 22 515
e 22 541
e 22 583
e 22 589
e 22 606
e 22 661
e 22 673
e 22 681
e 22 690
e 22 736
e 22 740
e 22 771
e 22 774
e 22 803
e 22 808
e 22 831
e 22 837
e 22 868
e 22 889
e 22 942
e 22 944
e 22 994
e 23 259
e 23 261
e 23 276
e 23 278
e 23 280
e 23 282
e 23 298
e 23 329
e 23 331
e 23 354
e 23 375
e 23 386
e 23 398
e 23 401
e 23 413
e 23 435
e 23 445
e 23 451
e 23 455
e 23 465
e 23 470
e 23 495
e 23 496
e 23 511
e 23 554
e 23 555
e 23 579
e 23 585
e 23 596
e 23 612
e 23 621
e 23 624
e 23 632
e 23 656
e 23 657
e 23 679
e 23 689
e 23 696
e 23 699
e 23 701
e 23 727
e 23 729
e 23 731
e 23 781
e 23 909
e 23 918
e 23 921
e 23 935
e 23 937
e 23 952
e 23 955
e 23 963
e 23 997
e 24 277
e 24 291
e 24 307
e 24 362
e 24 369
e 24 397
e 24 439
e 24 447
e 24 456
e 24 473
e 24 522
e 24 529
e 24 578
e 24 590
e 24 627
e 24 652
e 24 661
e 24 718
e 24 728
e 24 734
e 24 810
e 24 811
e 24 887
e 24 907
e 24 915
e 24 937
e 24 977
e 24 993
e 25 278
e 25 311
e 25 344
e 25 352
e 25 475
e 25 576
e 25 587
e 25 614
e 25 617
e 25 620
e 25 633
e 25 634
e 25 645
e 25 649
e 25 693
e 25 696
e 25 744
e 25 745
e 25 776
e 25 795
e 25 860
e 25 864
e 25 866
e 25 872
e 25 882
e 25 894
e 25 910
e 25 937
e 25 953
e 25 973
e 26 275
e 26 280
e 26 299
e 26 313
e 26 318
e 26 345
e 26 367
e 26 371
e 26 381
e 26 383
e 26 388
e 26 444
e 26 469
e 26 487
e 26 513
e 26 518
e 26 521
e 26 523
e 26 541
e 26 563
e 26 625
e 26 651
e 26 667
e 26 681
e 26 689
e 26 703
e 26 716
e 26 742
e 26 757
e 26 770
e 26 771
e 26 789
e 26 793
e 26 821
e 26 828
e 26 840
e 26 855
e 26 954
e 27 298
e 27 300
e 27 315
e 27 371
e 27 374
e 27 376
e 27 377
e 27 429
e 27 476
e 27 490
e 27 491
e 27 496
e 27 507
e 27 515
e 27 518
e 27 534
e 27 545
e 27 562
e 27 590
e 27 599
e 27 602
e 27 665
e 27 667
e 27 671
e 27 677
e 27 719
e 27 721
e 27 725
e 27 738
e 27 740
e 27 755
e 27 761
e 27 769
e 27 781
e 27 797
e 27 840
e 27 842
e 27 895
e 27 907
e 27 910
e 27 918
e 27 920
e 27 925
e 27 950
e 28 253
e 28 259
e 28 270
e 28 310
e 28 314
e 28 330
e 28 332
e 28 333
e 28 366
e 28 368
e 28 372
e 28 391
e 28 392
e 28 423
e 28 429
e 28 475
e 28 481
e 28 487
e 28 491
e 28 553
e 28 629
e 28 651
e 28 684
e 28 707
e 28 745
e 28 802
e 28 819
e 28 831
e 28 868
e 28 871
e 28 893
e 28 924
e 28 938
e 28 956
e 28 971
e 28 981
e 28 988
e 29 259
e 29 302
e 29 339
e 29 343
e 29 365
e 29 367
e 29 371
e 29 375
e 29 388
e 29 409
e 29 430
e 29 497
e 29 500
e 29 509
e 29 545
e 29 555
e 29 582
e 29 593
e 29 595
e 29 616
e 29 622
e 29 631
e 29 666
e 29 727
e 29 745
e 29 746
e 29 787
e 29 806
e 29 810
e 29 813
e 29 821
e 29 826
e 29 835
e 29 849
e 29 886
e 29 911
e 29 912
e 29 998
e 30 269
e 30 271
e 30 275
e 30 325
e 30 341
e 30 359
e 30 373
e 30 388
e 30 412
e 30 420
e 30 423
e 30 434
e 30 451
e 30 469
e 30 481
e 30 497
e 30 518
e 30 522
e 30 530
e 30 550
e 30 551
e 30 594
e 30 600
e 30 611
e 30 656
e 30 669
e 30 690
e 30 692
e 30 695
e 30 713
e 30 743
e 30 765
e 30 770
e 30 825
e 30 828
e 30 840
e 30 850
e 30 854
e 30 862
e 30 874
e 30 881
e 30 894
e 30 895
e 30 897
e 30 911
e 30 928
e 30 959
e 31 306
e 31 350
e 31 361
e 31 374
e 31 382
e 31 390
e 31 398
e 31 441
e 31 481
e 31 548
e 31 577
e 31 593
e 31 602
e 31 609
e 31 619
e 31 635
e 31 673
e 31 689
e 31 712
e 31 718
e 31 751
e 31 752
e 31 762
e 31 788
e 31 789
e 31 815
e 31 831
e 31 840
e 31 851
e 31 874
e 31 878
e 31 883
e 31 889
e 31 901
e 31 943
e 31 945
e 31 979
e 31 997
e 32 298
e 32 324
e 32 330
e 32 343
e 32 345
e 32 352
e 32 414
e 32 450
e 32 469
e 32 472
e 32 498
e 32 501
e 32 524
e 32 538
e 32 555
e 32 560
e 32 570
e 32 600
e 32 636
e 32 641
e 32 645
e 32 652
e 32 662
e 32 665
e 32 754
e 32 756
e 32 803
e 32 804
e 32 820
e 32 824
e 32 835
e 32 860
e 32 875
e 32 887
e 32 921
e 32 941
e 32 963
e 32 986
e 33 303
e 33 309
e 33 331
e 33 332
e 33 338
e 33 359
e 33 396
e 33 405
e 33 415
e 33 426
e 33 427
e 33 430
e 33 432
e 33 508
e 33 509
e 33 519
e 33 536
e 33 573
e 33 601
e 33 617
e 33 646
e 33 669
e 33 674
e 33 675
e 33 834
e 33 844
e 33 851
e 33 855
e 33 860
e 33 901
e 33 921
e 33 929
e 33 940
e 33 955
e 33 961
e 33 962
e 33 964
e 33 985
e 33 996
e 33 997
e 34 252
e 34 263
e 34 288
e 34 328
e 34 379
e 34 382
e 34 396
e 34 406
e 34 419
e 34 426
e 34 466
e 34 480
e 34 503
e 34 513
e 34 535
e 34 563
e 34 565
e 34 587
e 34 615
e 34 632
e 34 633
e 34 637
e 34 679
e 34 694
e 34 711
e 34 744
e 34 747
e 34 778
e 34 817
e 34 822
e 34 823
e 34 827
e 34 844
e 34 863
e 34 889
e 34 898
e 34 925
e 34 938
e 34 949
e 34 971
e 34 973
e 35 266
e 35 272
e 35 281
e 35 289
e 35 331
e 35 358
e 35 377
e 35 400
e 35 418
e 35 437
e 35 438
e 35 447
e 35 448
e 35 449
e 35 453
e 35 515
e 35 517
e 35 535
e 35 536
e 35 590
e 35 630
e 35 631
e 35 638
e 35 655
e 35 690
e 35 695
e 35 697
e 35 701
e 35 705
e 35 720
e 35 729
e 35 734
e 35 735
e 35 737
e 35 745
e 35 759
e 35 780
e 35 799
e 35 888
e 35 914
e 35 924
e 35 942
e 35 958
e 35 975
e 35 977
e 36 267
e 36 315
e 36 318
e 36 320
e 36 359
e 36 399
e 36 402
e 36 436
e 36 464
e 36 561
e 36 576
e 36 607
e 36 608
e 36 626
e 36 638
e 36 680
e 36 694
e 36 750
e 36 830
e 36 870
e 36 872
e 36 876
e 36 878
e 36 942
e 36 943
e 36 944
e 36 964
e 36 966
e 36 983
e 37 261
e 37 283
e 37 292
e 37 315
e 37 319
e 37 325
e 37 333
e 37 375
e 37 410
e 37 417
e 37 418
e 37 449
e 37 450
e 37 461
e 37 491
e 37 504
e 37 535
e 37 578
e 37 591
e 37 612
e 37 634
e 37 659
e 37 715
e 37 761
e 37 930
e 37 957
e 37 965
e 38 290
e 38 295
e 38 321
e 38 368
e 38 388
e 38 458
e 38 478
e 38 486
e 38 516
e 38 533
e 38 540
e 38 544
e 38 554
e 38 590
e 38 595
e 38 629
e 38 670
e 38 716
e 38 725
e 38 819
e 38 827
e 38 836
e 38 880
e 38 895
e 38 917
e 38 944
e 38 984
e 38 990
e 39 322
e 39 335
e 39 353
e 39 366
e 39 383
e 39 385
e 39 414
e 39 418
e 39 433
e 39 460
e 39 485
e 39 503
e 39 577
e 39 604
e 39 637
e 39 650
e 39 663
e 39 682
e 39 726
e 39 733
e 39 749
e 39 780
e 39 790
e 39 844
e 39 848
e 39 852
e 39 880
e 39 887
e 39 912
e 39 913
e 39 915
e 39 919
e 39 925
e 39 940
e 40 252
e 40 274
e 40 278
e 40 297
e 40 339
e 40 347
e 40 352
e 40 365
e 40 370
e 40 393
e 40 435
e 40 440
e 40 450
e 40 461
e 40 481
e 40 482
e 40 483
e 40 497
e 40 510
e 40 516
e 40 531
e 40 584
e 40 585
e 40 607
e 40 611
e 40 640
e 40 647
e 40 669
e 40 723
e 40 726
e 40 738
e 40 762
e 40 785
e 40 787
e 40 809
e 40 831
e 40 841
e 40 890
e 40 894
e 40 924
e 40 956
e 40 970
e 40 973
e 40 993
e 40 997
e 41 259
e 41 267
e 41 268
e 41 273
e 41 314
e 41 337
e 41 373
e 41 378
e 41 432
e 41 436
e 41 440
e 41 441
e 41 478
e 41 535
e 41 542
e 41 565
e 41 642
e 41 666
e 41 671
e 41 677
e 41 682
e 41 698
e 41 699
e 41 710
e 41 742
e 41 762
e 41 764
e 41 765
e 41 768
e 41 815
e 41 819
e 41 825
e 41 828
e 41 846
e 41 882
e 41 901
e 41 940
e 41 991
e 42 261
e 42 305
e 42 379
e 42 403
e 42 415
e 42 474
e 42 513
e 42 516
e 42 549
e 42 552
e 42 578
e 42 586
e 42 595
e 42 616
e 42 625
e 42 665
e 42 673
e 42 690
e 42 706
e 42 721
e 42 731
e 42 781
e 42 797
e 42 800
e 42 802
e 42 807
e 42 840
e 42 841
e 42 863
e 42 869
e 42 898
e 42 909
e 42 917
e 42 925
e 42 934
e 42 974
e 43 264
e 43 286
e 43 287
e 43 317
e 43 330
e 43 349
e 43 369
e 43 447
e 43 460
e 43 523
e 43 534
e 43 561
e 43 637
e 43 671
e 43 715
e 43 726
e 43 745
e 43 792
e 43 802
e 43 804
e 43 814
e 43 837
e 43 845
e 43 853
e 43 908
e 43 916
e 43 922
e 43 961
e 44 254
e 44 269
e 44 296
e 44 300
e 44 322
e 44 323
e 44 325
e 44 331
e 44 346
e 44 351
e 44 358
e 44 372
e 44 395
e 44 402
e 44 406
e 44 418
e 44 430
e 44 440
e 44 449
e 44 451
e 44 454
e 44 474
e 44 502
e 44 516
e 44 528
e 44 531
e 44 534
e 44 633
e 44 634
e 44 646
e 44 647
e 44 745
e 44 753
e 44 757
e 44 764
e 44 773
e 44 790
e 44 825
e 44 901
e 44 904
e 44 909
e 44 917
e 44 942
e 44 964
e 44 995
e 45 295
e 45 409
e 45 466
e 45 510
e 45 517
e 45 589
e 45 658
e 45 664
e 45 704
e 45 712
e 45 749
e 45 780
e 45 782
e 45 806
e 45 823
e 45 836
e 45 853
e 45 878
e 45 880
e 45 898
e 45 901
e 45 905
e 45 921
e 45 932
e 45 938
e 45 940
e 45 941
e 45 946
e 45 977
e 45 982
e 45 990
e 46 273
e 46 281
e 46 287
e 46 294
e 46 305
e 46 318
e 46 403
e 46 418
e 46 436
e 46 480
e 46 492
e 46 502
e 46 504
e 46 524
e 46 586
e 46 621
e 46 625
e 46 669
e 46 708
e 46 712
e 46 744
e 46 755
e 46 758
e 46 775
e 46 784
e 46 816
e 46 843
e 46 891
e 46 898
e 46 953
e 46 954
e 46 996
e 46 997
e 47 253
e 47 291
e 47 302
e 47 332
e 47 353
e 47 354
e 47 366
e 47 368
e 47 388
e 47 443
e 47 482
e 47 490
e 47 509
e 47 548
e 47 573
e 47 574
e 47 584
e 47 587
e 47 594
e 47 642
e 47 730
e 47 766
e 47 778
e 47 787
e 47 789
e 47 800
e 47 825
e 47 865
e 47 882
e 47 894
e 47 905
e 47 937
e 47 954
e 47 990
e 47 992
e 48 291
e 48 315
e 48 324
e 48 353
e 48 358
e 48 404
e 48 405
e 48 421
e 48 424
e 48 427
e 48 483
e 48 523
e 48 580
e 48 609
e 48 655
e 48 661
e 48 662
e 48 664
e 48 694
e 48 715
e 48 719
e 48 727
e 48 744
e 48 750
e 48 761
e 48 814
e 48 817
e 48 828
e 48 852
e 48 863
e 48 878
e 48 883
e 48 885
e 48 900
e 48 926
e 48 945
e 48 963
e 48 990
e 48 1000
e 49 283
e 49 284
e 49 291
e 49 303
e 49 327
e 49 353
e 49 390
e 49 406
e 49 419
e 49 452
e 49 458
e 49 466
e 49 481
e 49 483
e 49 524
e 49 551
e 49 558
e 49 571
e 49 574
e 49 590
e 49 592
e 49 635
e 49 640
e 49 644
e 49 659
e 49 688
e 49 699
e 49 704
e 49 720
e 49 728
e 49 773
e 49 811
e 49 845
e 49 860
e 49 871
e 49 912
e 49 964
e 49 993
e 50 291
e 50 342
e 50 357
e 50 388
e 50 391
e 50 463
e 50 525
e 50 541
e 50 628
e 50 656
e 50 657
e 50 664
e 50 726
e 50 729
e 50 730
e 50 745
e 50 773
e 50 778
e 50 784
e 50 786
e 50 802
e 50 866
e 50 888
e 50 990
e 50 997
e 51 271
e 51 280
e 51 293
e 51 295
e 51 313
e 51 324
e 51 326
e 51 333
e 51 343
e 51 349
e 51 384
e 51 385
e 51 389
e 51 493
e 51 497
e 51 508
e 51 523
e 51 549
e 51 571
e 51 573
e 51 583
e 51 597
e 51 647
e 51 652
e 51 659
e 51 669
e 51 674
e 51 683
e 51 695
e 51 725
e 51 784
e 51 807
e 51 840
e 51 847
e 51 876
e 51 930
e 51 936
e 51 967
e 52 256
e 52 287
e 52 290
e 52 299
e 52 301
e 52 315
e 52 355
e 52 399
e 52 438
e 52 466
e 52 482
e 52 489
e 52 512
e 52 590
e 52 602
e 52 637
e 52 643
e 52 664
e 52 691
e 52 727
e 52 728
e 52 731
e 52 743
e 52 753
e 52 754
e 52 774
e 52 794
e 52 797
e 52 830
e 52 831
e 52 834
e 52 842
e 52 847
e 52 854
e 52 856
e 52 894
e 52 936
e 52 949
e 52 959
e 53 284
e 53 285
e 53 291
e 53 315
e 53 318
e 53 326
e 53 328
e 53 371
e 53 376
e 53 382
e 53 388
e 53 392
e 53 420
e 53 444
e 53 472
e 53 485
e 53 501
e 53 519
e 53 555
e 53 563
e 53 589
e 53 604
e 53 628
e 53 648
e 53 656
e 53 660
e 53 664
e 53 665
e 53 731
e 53 733
e 53 759
e 53 788
e 53 797
e 53 809
e 53 885
e 53 890
e 53 936
e 53 941
e 53 976
e 53 977
e 53 980
e 54 284
e 54 333
e 54 345
e 54 369
e 54 408
e 54 451
e 54 477
e 54 496
e 54 509
e 54 523
e 54 549
e 54 566
e 54 576
e 54 588
e 54 597
e 54 607
e 54 629
e 54 632
e 54 662
e 54 664
e 54 697
e 54 747
e 54 750
e 54 751
e 54 817
e 54 833
e 54 835
e 54 850
e 54 853
e 54 863
e 54 880
e 54 918
e 54 920
e 54 931
e 54 943
e 54 961
e 54 1000
e 55 312
e 55 319
e 55 322
e 55 323
e 55 353
e 55 365
e 55 384
e 55 402
e 55 416
e 55 429
e 55 439
e 55 443
e 55 447
e 55 467
e 55 487
e 55 496
e 55 541
e 55 545
e 55 553
e 55 554
e 55 576
e 55 643
e 55 707
e 55 751
e 55 799
e 55 864
e 55 897
e 55 898
e 55 904
e 55 909
e 55 915
e 55 922
e 55 947
e 55 948
e 55 949
e 55 954
e 56 273
e 56 279
e 56 296
e 56 299
e 56 301
e 56 351
e 56 357
e 56 361
e 56 406
e 56 410
e 56 411
e 56 427
e 56 458
e 56 482
e 56 515
e 56 533
e 56 537
e 56 547
e 56 575
e 56 645
e 56 714
e 56 756
e 56 791
e 56 817
e 56 863
e 56 903
e 56 922
e 56 930
e 56 933
e 56 944
e 57 282
e 57 320
e 57 322
e 57 356
e 57 364
e 57 377
e 57 381
e 57 450
e 57 454
e 57 471
e 57 482
e 57 485
e 57 494
e 57 505
e 57 527
e 57 536
e 57 550
e 57 578
e 57 582
e 57 585
e 57 588
e 57 590
e 57 618
e 57 625
e 57 636
e 57 662
e 57 663
e 57 673
e 57 707
e 57 715
e 57 759
e 57 768
e 57 769
e 57 789
e 57 814
e 57 851
e 57 879
e 57 900
e 57 919
e 57 931
e 57 973
e 57 986
e 58 282
e 58 284
e 58 287
e 58 300
e 58 358
e 58 374
e 58 381
e 58 400
e 58 438
e 58 462
e 58 468
e 58 481
e 58 486
e 58 509
e 58 510
e 58 519
e 58 544
e 58 557
e 58 570
e 58 614
e 58 695
e 58 725
e 58 727
e 58 728
e 58 751
e 58 827
e 58 835
e 58 853
e 58 868
e 58 875
e 58 914
e 58 931
e 58 933
e 58 976
e 59 261
e 59 271
e 59 325
e 59 331
e 59 366
e 59 383
e 59 416
e 59 438
e 59 467
e 59 494
e 59 505
e 59 512
e 59 514
e 59 538
e 59 550
e 59 560
e 59 617
e 59 618
e 59 626
e 59 627
e 59 654
e 59 661
e 59 670
e 59 707
e 59 708
e 59 730
e 59 742
e 59 743
e 59 754
e 59 778
e 59 810
e 59 811
e 59 813
e 59 822
e 59 832
e 59 833
e 59 852
e 59 868
e 59 879
e 59 891
e 59 920
e 59 924
e 59 953
e 59 960
e 59 973
e 59 985
e 59 998
e 59 1000
e 60 254
e 60 267
e 60 290
e 60 292
e 60 304
e 60 306
e 60 307
e 60 340
e 60 366
e 60 369
e 60 401
e 60 404
e 60 437
e 60 459
e 60 501
e 60 521
e 60 534
e 60 578
e 60 583
e 60 587
e 60 618
e 60 626
e 60 631
e 60 633
e 60 641
e 60 701
e 60 729
e 60 744
e 60 760
e 60 782
e 60 785
e 60 807
e 60 836
e 60 842
e 60 850
e 60 866
e 60 895
e 60 903
e 60 930
e 60 949
e 61 258
e 61 272
e 61 276
e 61 314
e 61 351
e 61 355
e 61 392
e 61 393
e 61 442
e 61 472
e 61 478
e 61 482
e 61 486
e 61 491
e 61 540
e 61 559
e 61 576
e 61 601
e 61 604
e 61 627
e 61 683
e 61 690
e 61 718
e 61 729
e 61 738
e 61 740
e 61 762
e 61 766
e 61 798
e 61 827
e 61 830
e 61 837
e 61 843
e 61 855
e 61 862
e 61 868
e 61 872
e 61 906
e 61 915
e 61 936
e 62 278
e 62 281
e 62 386
e 62 387
e 62 400
e 62 403
e 62 404
e 62 405
e 62 426
e 62 448
e 62 462
e 62 484
e 62 492
e 62 494
e 62 539
e 62 540
e 62 543
e 62 551
e 62 561
e 62 569
e 62 575
e 62 608
e 62 624
e 62 663
e 62 678
e 62 680
e 62 691
e 62 721
e 62 750
e 62 770
e 62 796
e 62 844
e 62 849
e 62 867
e 62 872
e 62 899
e 62 900
e 62 930
e 62 959
e 62 973
e 62 978
e 62 984
e 62 988
e 62 995
e 62 997
e 63 283
e 63 305
e 63 306
e 63 329
e 63 356
e 63 414
e 63 457
e 63 501
e 63 505
e 63 509
e 63 517
e 63 585
e 63 650
e 63 655
e 63 656
e 63 658
e 63 680
e 63 707
e 63 710
e 63 720
e 63 725
e 63 799
e 63 811
e 63 817
e 63 825
e 63 835
e 63 842
e 63 855
e 63 862
e 63 866
e 63 869
e 63 887
e 63 890
e 63 897
e 63 913
e 64 269
e 64 270
e 64 284
e 64 298
e 64 309
e 64 321
e 64 328
e 64 344
e 64 345
e 64 355
e 64 359
e 64 382
e 64 387
e 64 390
e 64 410
e 64 476
e 64 494
e 64 506
e 64 523
e 64 575
e 64 590
e 64 596
e 64 615
e 64 622
e 64 632
e 64 686
e 64 746
e 64 763
e 64 786
e 64 826
e 64 865
e 64 872
e 64 980
e 65 262
e 65 300
e 65 304
e 65 319
e 65 337
e 65 343
e 65 403
e 65 451
e 65 476
e 65 513
e 65 523
e 65 528
e 65 531
e 65 538
e 65 568
e 65 571
e 65 587
e 65 599
e 65 625
e 65 649
e 65 654
e 65 662
e 65 739
e 65 750
e 65 766
e 65 776
e 65 805
e 65 815
e 65 822
e 65 884
e 65 930
e 65 941
e 65 956
e 65 964
e 66 255
e 66 266
e 66 275
e 66 281
e 66 287
e 66 312
e 66 399
e 66 408
e 66 419
e 66 421
e 66 458
e 66 493
e 66 543
e 66 564
e 66 644
e 66 648
e 66 653
e 66 658
e 66 661
e 66 686
e 66 700
e 66 717
e 66 722
e 66 749
e 66 758
e 66 771
e 66 772
e 66 789
e 66 792
e 66 806
e 66 816
e 66 851
e 66 886
e 66 887
e 66 940
e 66 950
e 66 956
e 66 977
e 66 996
e 67 256
e 67 263
e 67 278
e 67 307
e 67 310
e 67 313
e 67 317
e 67 321
e 67 328
e 67 336
e 67 339
e 67 380
e 67 401
e 67 430
e 67 431
e 67 471
e 67 480
e 67 503
e 67 570
e 67 572
e 67 574
e 67 589
e 67 594
e 67 621
e 67 623
e 67 640
e 67 703
e 67 704
e 67 711
e 67 730
e 67 742
e 67 806
e 67 807
e 67 809
e 67 833
e 67 854
e 67 893
e 67 977
e 68 266
e 68 305
e 68 314
e 68 351
e 68 356
e 68 359
e 68 368
e 68 376
e 68 389
e 68 408
e 68 451
e 68 452
e 68 462
e 68 503
e 68 515
e 68 522
e 68 535
e 68 543
e 68 558
e 68 571
e 68 583
e 68 590
e 68 597
e 68 647
e 68 697
e 68 702
e 68 715
e 68 722
e 68 790
e 68 810
e 68 824
e 68 834
e 68 920
e 68 931
e 68 932
e 68 950
e 68 959
e 68 961
e 68 962
e 68 988
e 68 990
e 69 254
e 69 268
e 69 314
e 69 324
e 69 338
e 69 339
e 69 377
e 69 380
e 69 412
e 69 419
e 69 449
e 69 494
e 69 498
e 69 552
e 69 576
e 69 600
e 69 627
e 69 639
e 69 655
e 69 669
e 69 680
e 69 705
e 69 722
e 69 731
e 69 764
e 69 771
e 69 783
e 69 787
e 69 823
e 69 858
e 69 955
e 69 959
e 69 960
e 69 971
e 70 260
e 70 280
e 70 283
e 70 312
e 70 368
e 70 398
e 70 408
e 70 422
e 70 461
e 70 463
e 70 482
e 70 498
e 70 522
e 70 536
e 70 606
e 70 637
e 70 653
e 70 662
e 70 709
e 70 717
e 70 723
e 70 737
e 70 746
e 70 763
e 70 777
e 70 778
e 70 781
e 70 819
e 70 845
e 70 881
e 70 903
e 70 916
e 70 929
e 70 933
e 70 955
e 70 958
e 70 968
e 70 969
e 70 970
e 70 971
e 70 976
e 70 985
e 70 995
e 71 267
e 71 313
e 71 314
e 71 385
e 71 392
e 71 405
e 71 411
e 71 420
e 71 429
e 71 430
e 71 444
e 71 469
e 71 477
e 71 504
e 71 524
e 71 526
e 71 533
e 71 545
e 71 546
e 71 551
e 71 554
e 71 557
e 71 559
e 71 579
e 71 598
e 71 646
e 71 648
e 71 657
e 71 680
e 71 698
e 71 720
e 71 749
e 71 751
e 71 776
e 71 790
e 71 820
e 71 865
e 71 899
e 71 925
e 71 949
e 71 973
e 71 988
e 71 999
e 72 266
e 72 280
e 72 281
e 72 290
e 72 291
e 72 333
e 72 357
e 72 359
e 72 364
e 72 418
e 72 421
e 72 436
e 72 452
e 72 465
e 72 529
e 72 533
e 72 547
e 72 584
e 72 631
e 72 719
e 72 720
e 72 746
e 72 815
e 72 842
e 72 848
e 72 854
e 72 868
e 72 946
e 73 306
e 73 343
e 73 350
e 73 353
e 73 358
e 73 440
e 73 477
e 73 481
e 73 509
e 73 514
e 73 603
e 73 621
e 73 646
e 73 661
e 73 683
e 73 706
e 73 709
e 73 727
e 73 730
e 73 740
e 73 758
e 73 803
e 73 804
e 73 837
e 73 850
e 73 869
e 73 877
e 73 912
e 73 919
e 73 941
e 73 949
e 74 251
e 74 256
e 74 259
e 74 288
e 74 309
e 74 336
e 74 367
e 74 377
e 74 384
e 74 397
e 74 421
e 74 500
e 74 557
e 74 561
e 74 580
e 74 599
e 74 617
e 74 623
e 74 649
e 74 652
e 74 664
e 74 665
e 74 710
e 74 725
e 74 745
e 74 749
e 74 759
e 74 767
e 74 769
e 74 779
e 74 791
e 74 822
e 74 830
e 74 844
e 74 860
e 74 873
e 74 881
e 74 894
e 74 899
e 74 902
e 74 920
e 74 949
e 74 959
e 74 960
e 74 992
e 74 997
e 75 261
e 75 281
e 75 283
e 75 418
e 75 532
e 75 559
e 75 576
e 75 577
e 75 578
e 75 584
e 75 596
e 75 615
e 75 665
e 75 678
e 75 689
e 75 696
e 75 722
e 75 753
e 75 783
e 75 847
e 75 881
e 75 926
e 75 931
e 75 933
e 75 966
e 76 260
e 76 264
e 76 265
e 76 275
e 76 278
e 76 279
e 76 290
e 76 298
e 76 329
e 76 381
e 76 434
e 76 449
e 76 452
e 76 486
e 76 499
e 76 514
e 76 528
e 76 532
e 76 574
e 76 598
e 76 614
e 76 655
e 76 663
e 76 668
e 76 735
e 76 777
e 76 780
e 76 800
e 76 822
e 76 825
e 76 862
e 76 874
e 76 877
e 76 886
e 76 890
e 76 908
e 76 938
e 76 965
e 76 982
e 76 987
e 76 998
e 77 264
e 77 330
e 77 344
e 77 352
e 77 371
e 77 391
e 77 437
e 77 452
e 77 489
e 77 496
e 77 498
e 77 507
e 77 535
e 77 541
e 77 546
e 77 574
e 77 606
e 77 628
e 77 668
e 77 673
e 77 716
e 77 723
e 77 732
e 77 740
e 77 769
e 77 775
e 77 797
e 77 872
e 77 873
e 77 888
e 77 907
e 77 915
e 77 925
e 77 948
e 77 976
e 78 304
e 78 326
e 78 356
e 78 425
e 78 429
e 78 448
e 78 470
e 78 472
e 78 528
e 78 534
e 78 553
e 78 583
e 78 606
e 78 619
e 78 651
e 78 654
e 78 668
e 78 670
e 78 678
e 78 683
e 78 752
e 78 760
e 78 767
e 78 771
e 78 798
e 78 904
e 78 914
e 78 925
e 78 946
e 78 954
e 79 281
e 79 310
e 79 331
e 79 342
e 79 375
e 79 389
e 79 390
e 79 482
e 79 485
e 79 495
e 79 507
e 79 517
e 79 530
e 79 545
e 79 577
e 79 585
e 79 618
e 79 657
e 79 668
e 79 680
e 79 692
e 79 719
e 79 723
e 79 730
e 79 747
e 79 815
e 79 844
e 79 852
e 79 853
e 79 859
e 79 891
e 79 921
e 79 938
e 79 959
e 79 973
e 79 980
e 79 991
e 80 283
e 80 320
e 80 321
e 80 330
e 80 338
e 80 367
e 80 373
e 80 376
e 80 386
e 80 444
e 80 447
e 80 461
e 80 480
e 80 585
e 80 595
e 80 596
e 80 623
e 80 646
e 80 654
e 80 676
e 80 694
e 80 762
e 80 796
e 80 798
e 80 802
e 80 813
e 80 826
e 80 851
e 80 853
e 80 856
e 80 877
e 80 884
e 80 924
e 80 926
e 80 992
e 81 265
e 81 326
e 81 336
e 81 342
e 81 349
e 81 351
e 81 380
e 81 390
e 81 435
e 81 437
e 81 440
e 81 447
e 81 482
e 81 486
e 81 490
e 81 492
e 81 517
e 81 593
e 81 610
e 81 614
e 81 646
e 81 654
e 81 664
e 81 668
e 81 679
e 81 685
e 81 727
e 81 729
e 81 732
e 81 738
e 81 783
e 81 801
e 81 813
e 81 814
e 81 830
e 81 842
e 81 848
e 81 857
e 81 862
e 81 865
e 81 871
e 81 874
e 81 887
e 81 893
e 81 919
e 81 924
e 81 956
e 81 957
e 81 960
e 81 981
e 81 987
e 81 996
e 81 998
e 82 314
e 82 329
e 82 370
e 82 374
e 82 384
e 82 392
e 82 404
e 82 415
e 82 438
e 82 444
e 82 491
e 82 510
e 82 518
e 82 531
e 82 570
e 82 576
e 82 598
e 82 602
e 82 605
e 82 608
e 82 651
e 82 666
e 82 700
e 82 724
e 82 732
e 82 733
e 82 760
e 82 768
e 82 772
e 82 778
e 82 781
e 82 808
e 82 812
e 82 826
e 82 836
e 82 865
e 82 905
e 82 914
e 82 919
e 82 956
e 82 967
e 82 978
e 82 983
e 82 990
e 82 996
e 83 267
e 83 290
e 83 324
e 83 326
e 83 329
e 83 332
e 83 363
e 83 366
e 83 399
e 83 423
e 83 424
e 83 446
e 83 482
e 83 493
e 83 555
e 83 568
e 83 571
e 83 624
e 83 638
e 83 648
e 83 652
e 83 656
e 83 662
e 83 727
e 83 731
e 83 761
e 83 778
e 83 811
e 83 815
e 83 851
e 83 854
e 83 871
e 83 873
e 83 911
e 83 912
e 83 925
e 83 943
e 83 969
e 83 981
e 84 257
e 84 264
e 84 278
e 84 333
e 84 391
e 84 413
e 84 442
e 84 454
e 84 472
e 84 474
e 84 478
e 84 494
e 84 501
e 84 527
e 84 546
e 84 603
e 84 611
e 84 624
e 84 638
e 84 641
e 84 721
e 84 748
e 84 764
e 84 811
e 84 819
e 84 883
e 84 933
e 84 939
e 84 957
e 84 963
e 84 975
e 84 977
e 84 992
e 85 258
e 85 284
e 85 302
e 85 309
e 85 338
e 85 340
e 85 375
e 85 390
e 85 401
e 85 410
e 85 420
e 85 439
e 85 449
e 85 459
e 85 477
e 85 491
e 85 499
e 85 517
e 85 530
e 85 564
e 85 571
e 85 578
e 85 579
e 85 582
e 85 595
e 85 635
e 85 682
e 85 693
e 85 700
e 85 702
e 85 721
e 85 726
e 85 765
e 85 783
e 85 802
e 85 815
e 85 822
e 85 826
e 85 842
e 85 865
e 85 868
e 85 872
e 85 881
e 85 926
e 85 930
e 85 932
e 85 942
e 85 951
e 85 978
e 85 991
e 86 275
e 86 277
e 86 288
e 86 302
e 86 314
e 86 339
e 86 373
e 86 396
e 86 398
e 86 417
e 86 424
e 86 440
e 86 445
e 86 458
e 86 461
e 86 515
e 86 517
e 86 527
e 86 537
e 86 559
e 86 560
e 86 581
e 86 591
e 86 621
e 86 657
e 86 662
e 86 697
e 86 704
e 86 713
e 86 720
e 86 732
e 86 772
e 86 796
e 86 819
e 86 828
e 86 835
e 86 881
e 86 905
e 86 951
e 86 959
e 86 968
e 86 986
e 86 988
e 87 251
e 87 267
e 87 374
e 87 423
e 87 473
e 87 482
e 87 501
e 87 506
e 87 540
e 87 554
e 87 578
e 87 612
e 87 618
e 87 672
e 87 727
e 87 743
e 87 756
e 87 802
e 87 829
e 87 859
e 87 876
e 87 879
e 87 912
e 87 961
e 87 970
e 87 986
e 87 1000
e 88 290
e 88 315
e 88 366
e 88 383
e 88 402
e 88 427
e 88 429
e 88 437
e 88 442
e 88 472
e 88 504
e 88 513
e 88 515
e 88 538
e 88 544
e 88 599
e 88 600
e 88 604
e 88 684
e 88 707
e 88 710
e 88 721
e 88 752
e 88 801
e 88 818
e 88 819
e 88 827
e 88 855
e 88 886
e 88 901
e 88 943
e 88 968
e 88 990
e 88 994
e 88 998
e 89 265
e 89 290
e 89 295
e 89 296
e 89 344
e 89 347
e 89 359
e 89 367
e 89 426
e 89 434
e 89 444
e 89 469
e 89 509
e 89 518
e 89 537
e 89 560
e 89 581
e 89 583
e 89 614
e 89 634
e 89 658
e 89 660
e 89 662
e 89 705
e 89 707
e 89 776
e 89 796
e 89 815
e 89 816
e 89 922
e 89 950
e 89 974
e 90 254
e 90 283
e 90 335
e 90 362
e 90 387
e 90 393
e 90 450
e 90 464
e 90 472
e 90 474
e 90 537
e 90 557
e 90 564
e 90 578
e 90 621
e 90 622
e 90 628
e 90 629
e 90 634
e 90 639
e 90 642
e 90 648
e 90 679
e 90 692
e 90 698
e 90 714
e 90 737
e 90 772
e 90 777
e 90 844
e 90 855
e 90 863
e 90 897
e 90 982
e 91 257
e 91 258
e 91 293
e 91 309
e 91 335
e 91 348
e 91 392
e 91 413
e 91 427
e 91 481
e 91 550
e 91 560
e 91 596
e 91 600
e 91 616
e 91 623
e 91 627
e 91 639
e 91 673
e 91 687
e 91 721
e 91 736
e 91 740
e 91 746
e 91 772
e 91 786
e 91 886
e 91 910
e 91 918
e 91 929
e 91 958
e 92 295
e 92 312
e 92 324
e 92 331
e 92 375
e 92 376
e 92 393
e 92 401
e 92 411
e 92 413
e 92 429
e 92 494
e 92 496
e 92 519
e 92 525
e 92 551
e 92 620
e 92 622
e 92 637
e 92 647
e 92 686
e 92 689
e 92 691
e 92 721
e 92 741
e 92 762
e 92 763
e 92 780
e 92 790
e 92 797
e 92 820
e 92 854
e 92 858
e 92 859
e 92 887
e 92 889
e 92 901
e 92 920
e 92 929
e 92 932
e 92 941
e 92 945
e 92 971
e 93 266
e 93 282
e 93 285
e 93 300
e 93 308
e 93 312
e 93 329
e 93 341
e 93 367
e 93 473
e 93 529
e 93 544
e 93 550
e 93 552
e 93 563
e 93 588
e 93 604
e 93 634
e 93 649
e 93 666
e 93 712
e 93 727
e 93 735
e 93 748
e 93 753
e 93 759
e 93 764
e 93 767
e 93 772
e 93 779
e 93 804
e 93 833
e 93 836
e 93 860
e 93 876
e 93 879
e 93 889
e 93 931
e 93 933
e 93 935
e 93 938
e 93 945
e 93 947
e 93 987
e 93 994
e 94 252
e 94 274
e 94 307
e 94 356
e 94 373
e 94 378
e 94 438
e 94 453
e 94 465
e 94 466
e 94 470
e 94 475
e 94 476
e 94 523
e 94 525
e 94 581
e 94 584
e 94 617
e 94 626
e 94 630
e 94 701
e 94 708
e 94 728
e 94 750
e 94 769
e 94 785
e 94 795
e 94 800
e 94 824
e 94 838
e 94 847
e 94 853
e 94 892
e 94 918
e 94 924
e 94 941
e 94 965
e 94 998
e 95 267
e 95 283
e 95 304
e 95 313
e 95 338
e 95 345
e 95 347
e 95 348
e 95 389
e 95 391
e 95 394
e 95 413
e 95 417
e 95 437
e 95 452
e 95 462
e 95 503
e 95 504
e 95 521
e 95 534
e 95 554
e 95 561
e 95 578
e 95 579
e 95 626
e 95 643
e 95 668
e 95 700
e 95 709
e 95 717
e 95 721
e 95 728
e 95 762
e 95 786
e 95 794
e 95 800
e 95 807
e 95 810
e 95 922
e 95 964
e 96 253
e 96 267
e 96 279
e 96 319
e 96 320
e 96 367
e 96 369
e 96 371
e 96 382
e 96 400
e 96 403
e 96 405
e 96 409
e 96 429
e 96 476
e 96 482
e 96 527
e 96 532
e 96 568
e 96 570
e 96 584
e 96 614
e 96 642
e 96 646
e 96 663
e 96 666
e 96 677
e 96 681
e 96 690
e 96 706
e 96 709
e 96 727
e 96 733
e 96 765
e 96 803
e 96 807
e 96 815
e 96 822
e 96 834
e 96 842
e 96 847
e 96 934
e 96 963
e 96 993
e 97 298
e 97 328
e 97 351
e 97 355
e 97 428
e 97 435
e 97 457
e 97 487
e 97 497
e 97 544
e 97 554
e 97 567
e 97 593
e 97 599
e 97 636
e 97 637
e 97 658
e 97 661
e 97 667
e 97 679
e 97 720
e 97 743
e 97 747
e 97 750
e 97 759
e 97 800
e 97 847
e 97 850
e 97 858
e 97 870
e 97 893
e 97 924
e 97 955
e 97 957
e 97 986
e 98 256
e 98 259
e 98 272
e 98 310
e 98 321
e 98 377
e 98 415
e 98 466
e 98 480
e 98 489
e 98 493
e 98 500
e 98 528
e 98 546
e 98 597
e 98 624
e 98 665
e 98 667
e 98 686
e 98 737
e 98 768
e 98 776
e 98 779
e 98 780
e 98 791
e 98 799
e 98 829
e 98 839
e 98 853
e 98 855
e 98 897
e 98 911
e 98 951
e 98 953
e 98 957
e 98 963
e 98 965
e 98 970
e 99 252
e 99 262
e 99 275
e 99 294
e 99 296
e 99 300
e 99 303
e 99 310
e 99 313
e 99 363
e 99 368
e 99 370
e 99 387
e 99 414
e 99 453
e 99 459
e 99 543
e 99 596
e 99 612
e 99 626
e 99 655
e 99 666
e 99 668
e 99 674
e 99 696
e 99 727
e 99 749
e 99 772
e 99 792
e 99 793
e 99 794
e 99 804
e 99 806
e 99 869
e 99 870
e 99 886
e 99 887
e 99 894
e 99 901
e 99 908
e 99 941
e 99 975
e 100 273
e 100 283
e 100 284
e 100 289
e 100 320
e 100 352
e 100 356
e 100 378
e 100 391
e 100 394
e 100 410
e 100 430
e 100 434
e 100 459
e 100 466
e 100 481
e 100 580
e 100 584
e 100 594
e 100 596
e 100 599
e 100 626
e 100 645
e 100 673
e 100 683
e 100 700
e 100 725
e 100 729
e 100 730
e 100 747
e 100 753
e 100 840
e 100 850
e 100 859
e 100 864
e 100 882
e 100 898
e 100 918
e 100 963
e 100 999
e 101 255
e 101 295
e 101 298
e 101 305
e 101 359
e 101 388
e 101 394
e 101 503
e 101 518
e 101 540
e 101 552
e 101 583
e 101 625
e 101 641
e 101 650
e 101 666
e 101 680
e 101 687
e 101 715
e 101 722
e 101 732
e 101 736
e 101 739
e 101 746
e 101 753
e 101 772
e 101 773
e 101 790
e 101 819
e 101 927
e 101 955
e 101 965
e 101 976
e 101 999
e 102 299
e 102 355
e 102 362
e 102 375
e 102 381
e 102 382
e 102 392
e 102 393
e 102 411
e 102 425
e 102 428
e 102 466
e 102 594
e 102 617
e 102 636
e 102 655
e 102 658
e 102 659
e 102 676
e 102 712
e 102 778
e 102 818
e 102 859
e 102 862
e 102 863
e 102 866
e 102 892
e 102 909
e 102 961
e 102 963
e 102 966
e 102 996
e 102 997
e 103 270
e 103 290
e 103 291
e 103 349
e 103 369
e 103 378
e 103 398
e 103 419
e 103 459
e 103 482
e 103 502
e 103 509
e 103 517
e 103 521
e 103 542
e 103 567
e 103 583
e 103 593
e 103 619
e 103 653
e 103 662
e 103 678
e 103 694
e 103 702
e 103 705
e 103 739
e 103 754
e 103 795
e 103 808
e 103 828
e 103 838
e 103 839
e 103 845
e 103 859
e 103 862
e 103 917
e 103 976
e 103 982
e 104 297
e 104 302
e 104 320
e 104 333
e 104 353
e 104 368
e 104 384
e 104 389
e 104 406
e 104 408
e 104 417
e 104 424
e 104 468
e 104 502
e 104 528
e 104 534
e 104 539
e 104 586
e 104 588
e 104 616
e 104 662
e 104 687
e 104 725
e 104 731
e 104 747
e 104 768
e 104 797
e 104 805
e 104 819
e 104 825
e 104 879
e 104 884
e 104 886
e 104 948
e 104 967
e 104 971
e 104 997
e 105 260
e 105 262
e 105 279
e 105 300
e 105 306
e 105 309
e 105 310
e 105 317
e 105 336
e 105 356
e 105 402
e 105 414
e 105 422
e 105 463
e 105 465
e 105 475
e 105 490
e 105 511
e 105 533
e 105 536
e 105 576
e 105 586
e 105 652
e 105 699
e 105 704
e 105 738
e 105 742
e 105 778
e 105 799
e 105 824
e 105 854
e 105 867
e 105 903
e 105 915
e 105 919
e 105 928
e 105 943
e 105 947
e 105 962
e 105 970
e 106 257
e 106 278
e 106 280
e 106 294
e 106 319
e 106 327
e 106 332
e 106 343
e 106 351
e 106 359
e 106 363
e 106 372
e 106 391
e 106 394
e 106 406
e 106 429
e 106 437
e 106 460
e 106 467
e 106 495
e 106 497
e 106 538
e 106 569
e 106 581
e 106 583
e 106 591
e 106 614
e 106 627
e 106 651
e 106 671
e 106 691
e 106 706
e 106 709
e 106 720
e 106 721
e 106 725
e 106 831
e 106 833
e 106 836
e 106 847
e 106 859
e 106 886
e 106 898
e 106 988
e 107 285
e 107 308
e 107 325
e 107 336
e 107 338
e 107 348
e 107 403
e 107 407
e 107 423
e 107 471
e 107 472
e 107 479
e 107 541
e 107 556
e 107 584
e 107 602
e 107 677
e 107 683
e 107 692
e 107 698
e 107 706
e 107 749
e 107 774
e 107 785
e 107 815
e 107 837
e 107 841
e 107 842
e 107 852
e 107 870
e 107 883
e 107 896
e 107 897
e 107 978
e 108 280
e 108 304
e 108 314
e 108 322
e 108 363
e 108 365
e 108 379
e 108 382
e 108 388
e 108 405
e 108 410
e 108 416
e 108 426
e 108 436
e 108 472
e 108 494
e 108 558
e 108 587
e 108 594
e 108 602
e 108 605
e 108 610
e 108 634
e 108 637
e 108 642
e 108 643
e 108 648
e 108 702
e 108 703
e 108 707
e 108 720
e 108 750
e 108 753
e 108 760
e 108 765
e 108 795
e 108 831
e 108 887
e 108 925
e 108 928
e 108 984
e 109 251
e 109 255
e 109 299
e 109 332
e 109 343
e 109 351
e 109 370
e 109 404
e 109 408
e 109 415
e 109 491
e 109 509
e 109 513
e 109 525
e 109 558
e 109 562
e 109 590
e 109 681
e 109 697
e 109 713
e 109 729
e 109 735
e 109 739
e 109 743
e 109 747
e 109 761
e 109 787
e 109 792
e 109 819
e 109 841
e 109 853
e 109 866
e 109 867
e 109 878
e 109 879
e 109 882
e 109 902
e 109 917
e 109 923
e 109 945
e 109 949
e 109 963
e 109 964
e 109 974
e 109 991
e 109 999
e 110 268
e 110 286
e 110 299
e 110 335
e 110 354
e 110 428
e 110 454
e 110 500
e 110 507
e 110 534
e 110 555
e 110 564
e 110 603
e 110 612
e 110 629
e 110 631
e 110 635
e 110 645
e 110 679
e 110 685
e 110 723
e 110 735
e 110 748
e 110 762
e 110 773
e 110 819
e 110 851
e 110 876
e 110 884
e 110 902
e 110 910
e 110 913
e 110 931
e 110 941
e 111 264
e 111 329
e 111 337
e 111 394
e 111 400
e 111 403
e 111 415
e 111 419
e 111 422
e 111 442
e 111 460
e 111 507
e 111 565
e 111 589
e 111 591
e 111 602
e 111 631
e 111 692
e 111 700
e 111 740
e 111 776
e 111 778
e 111 791
e 111 827
e 111 832
e 111 870
e 111 878
e 111 887
e 111 889
e 111 898
e 111 912
e 111 959
e 111 969
e 111 980
e 111 981
e 111 988
e 112 265
e 112 269
e 112 281
e 112 285
e 112 313
e 112 404
e 112 413
e 112 420
e 112 461
e 112 466
e 112 473
e 112 517
e 112 530
e 112 550
e 112 563
e 112 576
e 112 580
e 112 583
e 112 593
e 112 610
e 112 641
e 112 650
e 112 653
e 112 681
e 112 701
e 112 711
e 112 712
e 112 717
e 112 745
e 112 747
e 112 768
e 112 803
e 112 830
e 112 851
e 112 865
e 112 871
e 112 912
e 112 920
e 113 267
e 113 270
e 113 299
e 113 305
e 113 331
e 113 354
e 113 365
e 113 391
e 113 467
e 113 477
e 113 515
e 113 539
e 113 571
e 113 584
e 113 603
e 113 613
e 113 635
e 113 647
e 113 666
e 113 668
e 113 672
e 113 676
e 113 725
e 113 757
e 113 774
e 113 775
e 113 825
e 113 830
e 113 849
e 113 851
e 113 853
e 113 863
e 113 881
e 113 883
e 113 901
e 113 913
e 113 936
e 113 980
e 113 985
e 114 256
e 114 276
e 114 293
e 114 328
e 114 336
e 114 343
e 114 375
e 114 383
e 114 409
e 114 430
e 114 436
e 114 440
e 114 455
e 114 473
e 114 500
e 114 557
e 114 586
e 114 590
e 114 602
e 114 633
e 114 724
e 114 746
e 114 747
e 114 764
e 114 770
e 114 781
e 114 867
e 114 878
e 114 925
e 114 945
e 114 946
e 114 961
e 114 993
e 115 270
e 115 301
e 115 329
e 115 331
e 115 336
e 115 358
e 115 390
e 115 394
e 115 438
e 115 445
e 115 446
e 115 460
e 115 464
e 115 515
e 115 551
e 115 564
e 115 572
e 115 587
e 115 610
e 115 621
e 115 645
e 115 662
e 115 685
e 115 724
e 115 748
e 115 755
e 115 784
e 115 806
e 115 831
e 115 839
e 115 878
e 115 920
e 115 930
e 115 942
e 115 956
e 115 977
e 115 986
e 115 992
e 116 256
e 116 273
e 116 338
e 116 344
e 116 365
e 116 397
e 116 415
e 116 464
e 116 470
e 116 472
e 116 525
e 116 531
e 116 595
e 116 601
e 116 618
e 116 629
e 116 638
e 116 646
e 116 647
e 116 656
e 116 658
e 116 686
e 116 704
e 116 723
e 116 732
e 116 752
e 116 800
e 116 802
e 116 807
e 116 810
e 116 813
e 116 845
e 116 889
e 116 971
e 116 972
e 116 986
e 117 262
e 117 279
e 117 281
e 117 289
e 117 304
e 117 362
e 117 363
e 117 364
e 117 385
e 117 408
e 117 410
e 117 416
e 117 429
e 117 433
e 117 435
e 117 464
e 117 480
e 117 484
e 117 505
e 117 507
e 117 522
e 117 523
e 117 555
e 117 583
e 117 592
e 117 608
e 117 616
e 117 617
e 117 662
e 117 720
e 117 721
e 117 723
e 117 755
e 117 770
e 117 798
e 117 811
e 117 820
e 117 828
e 117 843
e 117 892
e 117 894
e 117 924
e 117 935
e 117 945
e 117 951
e 117 959
e 117 960
e 117 966
e 117 977
e 117 987
e 118 268
e 118 324
e 118 362
e 118 392
e 118 395
e 118 419
e 118 433
e 118 435
e 118 440
e 118 476
e 118 477
e 118 480
e 118 497
e 118 503
e 118 507
e 118 512
e 118 514
e 118 541
e 118 546
e 118 552
e 118 554
e 118 570
e 118 593
e 118 620
e 118 631
e 118 641
e 118 650
e 118 664
e 118 671
e 118 703
e 118 742
e 118 743
e 118 779
e 118 842
e 118 848
e 118 852
e 118 862
e 118 880
e 118 883
e 118 891
e 118 892
e 118 921
e 118 933
e 118 936
e 118 955
e 118 967
e 118 995
e 119 260
e 119 267
e 119 273
e 119 288
e 119 311
e 119 334
e 119 350
e 119 366
e 119 383
e 119 413
e 119 471
e 119 482
e 119 487
e 119 499
e 119 500
e 119 511
e 119 648
e 119 653
e 119 663
e 119 677
e 119 706
e 119 711
e 119 712
e 119 725
e 119 737
e 119 751
e 119 754
e 119 774
e 119 795
e 119 824
e 119 828
e 119 832
e 119 837
e 119 843
e 119 878
e 119 895
e 119 925
e 119 932
e 119 961
e 120 261
e 120 268
e 120 287
e 120 297
e 120 314
e 120 329
e 120 345
e 120 364
e 120 365
e 120 382
e 120 388
e 120 393
e 120 411
e 120 421
e 120 428
e 120 442
e 120 450
e 120 499
e 120 504
e 120 505
e 120 523
e 120 557
e 120 600
e 120 630
e 120 642
e 120 714
e 120 725
e 120 731
e 120 800
e 120 900
e 120 929
e 120 948
e 120 950
e 120 957
e 120 968
e 120 970
e 121 285
e 121 323
e 121 347
e 121 411
e 121 418
e 121 431
e 121 507
e 121 559
e 121 595
e 121 601
e 121 630
e 121 641
e 121 661
e 121 684
e 121 705
e 121 716
e 121 717
e 121 738
e 121 793
e 121 802
e 121 812
e 121 831
e 121 841
e 121 875
e 121 885
e 121 902
e 121 923
e 121 938
e 121 955
e 121 959
e 121 970
e 121 973
e 121 993
e 121 1000
e 122 327
e 122 345
e 122 352
e 122 357
e 122 368
e 122 371
e 122 372
e 122 425
e 122 428
e 122 437
e 122 448
e 122 455
e 122 487
e 122 515
e 122 538
e 122 549
e 122 553
e 122 557
e 122 570
e 122 575
e 122 601
e 122 620
e 122 624
e 122 625
e 122 636
e 122 647
e 122 666
e 122 671
e 122 676
e 122 716
e 122 722
e 122 806
e 122 808
e 122 811
e 122 845
e 122 862
e 122 873
e 122 931
e 122 973
e 122 981
e 122 989
e 123 251
e 123 263
e 123 268
e 123 297
e 123 308
e 123 313
e 123 321
e 123 324
e 123 348
e 123 361
e 123 362
e 123 407
e 123 416
e 123 422
e 123 445
e 123 459
e 123 489
e 123 550
e 123 565
e 123 595
e 123 606
e 123 644
e 123 657
e 123 660
e 123 675
e 123 698
e 123 721
e 123 732
e 123 769
e 123 795
e 123 814
e 123 839
e 123 878
e 123 881
e 123 882
e 123 906
e 123 980
e 123 993
e 124 265
e 124 276
e 124 289
e 124 299
e 124 304
e 124 323
e 124 326
e 124 329
e 124 343
e 124 357
e 124 374
e 124 379
e 124 399
e 124 403
e 124 461
e 124 496
e 124 500
e 124 531
e 124 541
e 124 553
e 124 581
e 124 582
e 124 607
e 124 618
e 124 628
e 124 637
e 124 644
e 124 660
e 124 661
e 124 693
e 124 720
e 124 764
e 124 791
e 124 802
e 124 814
e 124 821
e 124 839
e 124 855
e 124 860
e 124 864
e 124 889
e 124 894
e 124 902
e 124 991
e 124 992
e 125 256
e 125 283
e 125 328
e 125 343
e 125 345
e 125 361
e 125 372
e 125 378
e 125 407
e 125 410
e 125 454
e 125 484
e 125 494
e 125 503
e 125 535
e 125 561
e 125 603
e 125 635
e 125 640
e 125 668
e 125 676
e 125 720
e 125 730
e 125 761
e 125 767
e 125 769
e 125 771
e 125 808
e 125 816
e 125 817
e 125 822
e 125 859
e 125 879
e 125 932
e 125 937
e 125 980
e 125 982
e 125 993
e 126 278
e 126 291
e 126 329
e 126 356
e 126 397
e 126 423
e 126 436
e 126 467
e 126 472
e 126 494
e 126 519
e 126 557
e 126 576
e 126 579
e 126 605
e 126 622
e 126 623
e 126 633
e 126 684
e 126 704
e 126 705
e 126 733
e 126 742
e 126 764
e 126 777
e 126 778
e 126 783
e 126 789
e 126 818
e 126 821
e 126 823
e 126 832
e 126 838
e 126 860
e 126 863
e 126 911
e 126 937
e 126 942
e 126 955
e 126 959
e 126 973
e 127 255
e 127 294
e 127 299
e 127 301
e 127 314
e 127 338
e 127 345
e 127 350
e 127 358
e 127 404
e 127 416
e 127 428
e 127 444
e 127 479
e 127 481
e 127 492
e 127 495
e 127 499
e 127 506
e 127 529
e 127 535
e 127 567
e 127 590
e 127 599
e 127 602
e 127 609
e 127 629
e 127 637
e 127 691
e 127 703
e 127 709
e 127 750
e 127 756
e 127 764
e 127 778
e 127 779
e 127 806
e 127 811
e 127 832
e 127 880
e 127 904
e 127 929
e 127 965
e 128 256
e 128 261
e 128 291
e 128 312
e 128 326
e 128 349
e 128 351
e 128 367
e 128 369
e 128 390
e 128 404
e 128 408
e 128 427
e 128 432
e 128 458
e 128 460
e 128 503
e 128 514
e 128 515
e 128 525
e 128 528
e 128 540
e 128 542
e 128 567
e 128 568
e 128 584
e 128 599
e 128 613
e 128 622
e 128 642
e 128 681
e 128 703
e 128 712
e 128 740
e 128 753
e 128 797
e 128 813
e 128 838
e 128 879
e 128 897
e 128 911
e 128 982
e 128 984
e 129 280
e 129 286
e 129 295
e 129 306
e 129 307
e 129 320
e 129 357
e 129 364
e 129 372
e 129 400
e 129 417
e 129 419
e 129 426
e 129 428
e 129 434
e 129 438
e 129 447
e 129 480
e 129 514
e 129 558
e 129 565
e 129 611
e 129 631
e 129 668
e 129 677
e 129 684
e 129 686
e 129 696
e 129 742
e 129 756
e 129 774
e 129 806
e 129 820
e 129 836
e 129 841
e 129 849
e 129 862
e 129 873
e 129 877
e 129 896
e 129 901
e 129 907
e 129 939
e 129 944
e 129 967
e 130 252
e 130 254
e 130 304
e 130 331
e 130 342
e 130 346
e 130 360
e 130 379
e 130 412
e 130 444
e 130 452
e 130 471
e 130 516
e 130 544
e 130 549
e 130 567
e 130 570
e 130 576
e 130 599
e 130 650
e 130 694
e 130 710
e 130 725
e 130 741
e 130 743
e 130 760
e 130 776
e 130 783
e 130 796
e 130 821
e 130 826
e 130 874
e 130 883
e 130 890
e 130 893
e 130 950
e 130 956
e 131 284
e 131 299
e 131 331
e 131 335
e 131 358
e 131 367
e 131 393
e 131 414
e 131 421
e 131 427
e 131 428
e 131 494
e 131 518
e 131 524
e 131 532
e 131 539
e 131 544
e 131 545
e 131 556
e 131 580
e 131 587
e 131 593
e 131 623
e 131 647
e 131 665
e 131 669
e 131 675
e 131 685
e 131 686
e 131 691
e 131 707
e 131 728
e 131 731
e 131 747
e 131 768
e 131 771
e 131 778
e 131 796
e 131 818
e 131 834
e 131 860
e 131 866
e 131 911
e 131 914
e 131 959
e 132 262
e 132 268
e 132 274
e 132 282
e 132 335
e 132 342
e 132 352
e 132 355
e 132 368
e 132 383
e 132 386
e 132 409
e 132 413
e 132 486
e 132 506
e 132 530
e 132 532
e 132 537
e 132 570
e 132 591
e 132 598
e 132 643
e 132 645
e 132 651
e 132 688
e 132 731
e 132 739
e 132 744
e 132 755
e 132 769
e 132 773
e 132 775
e 132 781
e 132 805
e 132 813
e 132 835
e 132 853
e 132 859
e 132 909
e 132 925
e 132 961
e 132 962
e 132 966
e 132 970
e 132 974
e 132 979
e 132 995
e 133 265
e 133 302
e 133 311
e 133 338
e 133 340
e 133 343
e 133 369
e 133 372
e 133 377
e 133 432
e 133 460
e 133 464
e 133 544
e 133 582
e 133 601
e 133 624
e 133 633
e 133 644
e 133 645
e 133 654
e 133 665
e 133 698
e 133 716
e 133 770
e 133 776
e 133 783
e 133 831
e 133 847
e 133 876
e 133 879
e 133 886
e 133 890
e 133 897
e 133 909
e 133 914
e 133 939
e 133 973
e 133 985
e 133 989
e 133 997
e 134 350
e 134 351
e 134 416
e 134 418
e 134 443
e 134 456
e 134 500
e 134 514
e 134 548
e 134 562
e 134 593
e 134 640
e 134 673
e 134 735
e 134 748
e 134 769
e 134 793
e 134 837
e 134 838
e 134 886
e 134 907
e 134 914
e 134 925
e 134 956
e 134 962
e 134 985
e 134 994
e 134 1000
e 135 272
e 135 274
e 135 297
e 135 335
e 135 347
e 135 370
e 135 376
e 135 398
e 135 404
e 135 406
e 135 408
e 135 419
e 135 442
e 135 446
e 135 448
e 135 449
e 135 483
e 135 516
e 135 541
e 135 561
e 135 588
e 135 606
e 135 614
e 135 616
e 135 643
e 135 645
e 135 659
e 135 660
e 135 664
e 135 702
e 135 727
e 135 750
e 135 763
e 135 816
e 135 820
e 135 837
e 135 838
e 135 840
e 135 851
e 135 861
e 135 909
e 135 919
e 135 934
e 135 954
e 135 981
e 135 994
e 136 255
e 136 282
e 136 330
e 136 370
e 136 389
e 136 398
e 136 400
e 136 404
e 136 449
e 136 563
e 136 575
e 136 588
e 136 597
e 136 617
e 136 620
e 136 655
e 136 675
e 136 696
e 136 706
e 136 709
e 136 711
e 136 715
e 136 716
e 136 735
e 136 747
e 136 758
e 136 770
e 136 797
e 136 852
e 136 869
e 136 876
e 136 886
e 136 889
e 136 943
e 136 952
e 136 964
e 137 257
e 137 265
e 137 267
e 137 304
e 137 327
e 137 369
e 137 382
e 137 397
e 137 402
e 137 409
e 137 422
e 137 513
e 137 514
e 137 535
e 137 581
e 137 594
e 137 602
e 137 653
e 137 685
e 137 733
e 137 748
e 137 770
e 137 785
e 137 805
e 137 827
e 137 888
e 137 916
e 137 917
e 137 927
e 137 944
e 137 964
e 138 254
e 138 314
e 138 322
e 138 332
e 138 358
e 138 359
e 138 391
e 138 395
e 138 396
e 138 402
e 138 472
e 138 495
e 138 512
e 138 520
e 138 545
e 138 567
e 138 571
e 138 579
e 138 586
e 138 641
e 138 655
e 138 688
e 138 698
e 138 705
e 138 753
e 138 755
e 138 756
e 138 786
e 138 808
e 138 810
e 138 828
e 138 836
e 138 856
e 138 859
e 138 863
e 138 877
e 138 895
e 138 896
e 138 966
e 138 976
e 139 292
e 139 295
e 139 301
e 139 302
e 139 319
e 139 328
e 139 346
e 139 369
e 139 404
e 139 414
e 139 442
e 139 487
e 139 526
e 139 560
e 139 563
e 139 566
e 139 574
e 139 619
e 139 626
e 139 647
e 139 648
e 139 692
e 139 693
e 139 737
e 139 765
e 139 768
e 139 877
e 139 894
e 139 900
e 139 917
e 139 931
e 139 989
e 140 315
e 140 323
e 140 340
e 140 373
e 140 386
e 140 388
e 140 390
e 140 393
e 140 441
e 140 442
e 140 447
e 140 461
e 140 560
e 140 581
e 140 647
e 140 652
e 140 661
e 140 669
e 140 704
e 140 707
e 140 725
e 140 740
e 140 749
e 140 759
e 140 766
e 140 784
e 140 804
e 140 854
e 140 870
e 140 889
e 140 912
e 140 948
e 140 962
e 140 986
e 141 271
e 141 304
e 141 306
e 141 369
e 141 408
e 141 437
e 141 472
e 141 481
e 141 496
e 141 512
e 141 528
e 141 529
e 141 532
e 141 560
e 141 562
e 141 563
e 141 573
e 141 591
e 141 593
e 141 602
e 141 610
e 141 646
e 141 693
e 141 717
e 141 729
e 141 735
e 141 762
e 141 767
e 141 779
e 141 786
e 141 789
e 141 796
e 141 805
e 141 865
e 141 867
e 141 871
e 141 912
e 141 933
e 141 935
e 141 952
e 141 963
e 141 998
e 142 263
e 142 283
e 142 300
e 142 326
e 142 331
e 142 339
e 142 355
e 142 359
e 142 374
e 142 382
e 142 421
e 142 428
e 142 429
e 142 433
e 142 473
e 142 509
e 142 538
e 142 547
e 142 568
e 142 578
e 142 628
e 142 642
e 142 643
e 142 681
e 142 723
e 142 772
e 142 775
e 142 789
e 142 830
e 142 831
e 142 836
e 142 870
e 142 892
e 142 901
e 142 905
e 142 921
e 142 926
e 142 960
e 142 964
e 142 989
e 142 992
e 143 260
e 143 264
e 143 274
e 143 281
e 143 287
e 143 304
e 143 342
e 143 358
e 143 377
e 143 382
e 143 400
e 143 447
e 143 452
e 143 477
e 143 518
e 143 529
e 143 536
e 143 540
e 143 558
e 143 581
e 143 584
e 143 605
e 143 609
e 143 615
e 143 624
e 143 631
e 143 668
e 143 717
e 143 752
e 143 784
e 143 795
e 143 798
e 143 865
e 143 867
e 143 886
e 143 938
e 143 989
e 143 991
e 144 253
e 144 262
e 144 265
e 144 293
e 144 310
e 144 343
e 144 344
e 144 350
e 144 382
e 144 394
e 144 424
e 144 425
e 144 435
e 144 437
e 144 443
e 144 490
e 144 542
e 144 569
e 144 600
e 144 622
e 144 642
e 144 661
e 144 704
e 144 706
e 144 708
e 144 723
e 144 731
e 144 740
e 144 767
e 144 773
e 144 814
e 144 869
e 144 961
e 144 984
e 145 280
e 145 303
e 145 335
e 145 348
e 145 371
e 145 377
e 145 378
e 145 388
e 145 398
e 145 410
e 145 428
e 145 478
e 145 494
e 145 496
e 145 507
e 145 516
e 145 530
e 145 595
e 145 596
e 145 658
e 145 677
e 145 691
e 145 711
e 145 728
e 145 748
e 145 772
e 145 789
e 145 803
e 145 818
e 145 838
e 145 843
e 145 848
e 145 886
e 145 899
e 145 960
e 145 971
e 145 993
e 146 258
e 146 279
e 146 298
e 146 305
e 146 360
e 146 392
e 146 417
e 146 422
e 146 436
e 146 445
e 146 460
e 146 463
e 146 479
e 146 498
e 146 508
e 146 515
e 146 522
e 146 540
e 146 543
e 146 557
e 146 579
e 146 592
e 146 628
e 146 648
e 146 743
e 146 759
e 146 766
e 146 771
e 146 778
e 146 828
e 146 840
e 146 884
e 146 941
e 146 949
e 146 967
e 147 263
e 147 270
e 147 317
e 147 320
e 147 350
e 147 365
e 147 388
e 147 414
e 147 417
e 147 429
e 147 444
e 147 447
e 147 457
e 147 482
e 147 512
e 147 515
e 147 529
e 147 581
e 147 591
e 147 598
e 147 617
e 147 623
e 147 637
e 147 643
e 147 660
e 147 705
e 147 710
e 147 716
e 147 738
e 147 758
e 147 793
e 147 814
e 147 826
e 147 838
e 147 851
e 147 866
e 147 867
e 147 883
e 147 884
e 147 899
e 147 947
e 148 263
e 148 272
e 148 279
e 148 305
e 148 313
e 148 376
e 148 378
e 148 394
e 148 431
e 148 438
e 148 463
e 148 488
e 148 497
e 148 562
e 148 565
e 148 568
e 148 571
e 148 593
e 148 606
e 148 627
e 148 650
e 148 691
e 148 692
e 148 699
e 148 716
e 148 730
e 148 743
e 148 768
e 148 802
e 148 812
e 148 816
e 148 817
e 148 830
e 148 906
e 148 922
e 148 970
e 148 1000
e 149 256
e 149 268
e 149 274
e 149 289
e 149 298
e 149 362
e 149 398
e 149 430
e 149 443
e 149 444
e 149 445
e 149 457
e 149 466
e 149 467
e 149 474
e 149 495
e 149 557
e 149 570
e 149 584
e 149 610
e 149 622
e 149 666
e 149 673
e 149 704
e 149 743
e 149 757
e 149 765
e 149 829
e 149 852
e 149 938
e 149 953
e 149 965
e 149 978
e 149 997
e 150 252
e 150 272
e 150 275
e 150 285
e 150 298
e 150 310
e 150 325
e 150 340
e 150 353
e 150 362
e 150 366
e 150 403
e 150 405
e 150 408
e 150 417
e 150 441
e 150 449
e 150 471
e 150 474
e 150 495
e 150 497
e 150 517
e 150 528
e 150 535
e 150 538
e 150 545
e 150 556
e 150 559
e 150 568
e 150 600
e 150 614
e 150 615
e 150 642
e 150 676
e 150 685
e 150 686
e 150 748
e 150 754
e 150 761
e 150 770
e 150 771
e 150 779
e 150 833
e 150 838
e 150 855
e 150 877
e 150 903
e 150 960
e 150 976
e 150 986
e 151 264
e 151 320
e 151 323
e 151 344
e 151 354
e 151 375
e 151 398
e 151 404
e 151 416
e 151 425
e 151 430
e 151 434
e 151 475
e 151 492
e 151 508
e 151 515
e 151 535
e 151 583
e 151 611
e 151 616
e 151 618
e 151 640
e 151 725
e 151 743
e 151 750
e 151 772
e 151 780
e 151 787
e 151 890
e 151 899
e 151 912
e 151 947
e 151 975
e 151 990
e 151 997
e 152 261
e 152 275
e 152 301
e 152 317
e 152 328
e 152 363
e 152 384
e 152 388
e 152 395
e 152 397
e 152 404
e 152 459
e 152 481
e 152 507
e 152 511
e 152 519
e 152 544
e 152 589
e 152 638
e 152 661
e 152 682
e 152 685
e 152 699
e 152 719
e 152 734
e 152 758
e 152 766
e 152 793
e 152 833
e 152 848
e 152 893
e 152 920
e 152 930
e 152 931
e 152 964
e 152 984
e 153 256
e 153 260
e 153 291
e 153 305
e 153 330
e 153 348
e 153 377
e 153 389
e 153 440
e 153 463
e 153 510
e 153 533
e 153 551
e 153 560
e 153 574
e 153 576
e 153 591
e 153 602
e 153 612
e 153 620
e 153 641
e 153 644
e 153 655
e 153 698
e 153 765
e 153 783
e 153 785
e 153 810
e 153 826
e 153 827
e 153 856
e 153 861
e 153 885
e 153 889
e 153 897
e 153 935
e 153 945
e 153 948
e 153 979
e 153 981
e 154 266
e 154 272
e 154 294
e 154 305
e 154 311
e 154 318
e 154 389
e 154 413
e 154 440
e 154 458
e 154 489
e 154 506
e 154 518
e 154 522
e 154 535
e 154 554
e 154 565
e 154 605
e 154 628
e 154 637
e 154 661
e 154 662
e 154 678
e 154 680
e 154 734
e 154 743
e 154 766
e 154 773
e 154 786
e 154 803
e 154 806
e 154 821
e 154 823
e 154 857
e 154 861
e 154 880
e 154 895
e 154 937
e 154 963
e 154 988
e 155 257
e 155 277
e 155 288
e 155 291
e 155 327
e 155 332
e 155 359
e 155 367
e 155 375
e 155 414
e 155 416
e 155 437
e 155 442
e 155 461
e 155 503
e 155 511
e 155 515
e 155 516
e 155 533
e 155 551
e 155 612
e 155 641
e 155 642
e 155 650
e 155 664
e 155 700
e 155 715
e 155 729
e 155 737
e 155 809
e 155 822
e 155 829
e 155 909
e 155 947
e 155 994
e 155 995
e 155 998
e 156 261
e 156 262
e 156 290
e 156 336
e 156 345
e 156 381
e 156 383
e 156 416
e 156 428
e 156 434
e 156 476
e 156 495
e 156 521
e 156 522
e 156 524
e 156 544
e 156 559
e 156 581
e 156 621
e 156 623
e 156 661
e 156 663
e 156 669
e 156 698
e 156 718
e 156 719
e 156 720
e 156 733
e 156 734
e 156 745
e 156 746
e 156 761
e 156 790
e 156 803
e 156 809
e 156 822
e 156 833
e 156 855
e 156 887
e 156 911
e 156 941
e 156 952
e 156 979
e 157 259
e 157 308
e 157 309
e 157 311
e 157 355
e 157 370
e 157 375
e 157 383
e 157 427
e 157 454
e 157 476
e 157 511
e 157 515
e 157 531
e 157 535
e 157 539
e 157 552
e 157 554
e 157 567
e 157 658
e 157 674
e 157 681
e 157 690
e 157 698
e 157 701
e 157 740
e 157 760
e 157 766
e 157 767
e 157 790
e 157 819
e 157 820
e 157 870
e 157 871
e 157 873
e 157 875
e 157 880
e 157 893
e 157 900
e 157 935
e 157 940
e 157 957
e 157 970
e 157 973
e 157 982
e 158 255
e 158 292
e 158 331
e 158 343
e 158 370
e 158 382
e 158 412
e 158 414
e 158 484
e 158 501
e 158 522
e 158 528
e 158 537
e 158 595
e 158 603
e 158 613
e 158 635
e 158 644
e 158 667
e 158 676
e 158 695
e 158 698
e 158 745
e 158 751
e 158 766
e 158 769
e 158 807
e 158 812
e 158 817
e 158 846
e 158 847
e 158 959
e 158 960
e 158 965
e 158 985
e 158 1000
e 159 277
e 159 293
e 159 322
e 159 336
e 159 357
e 159 364
e 159 367
e 159 402
e 159 424
e 159 434
e 159 453
e 159 455
e 159 461
e 159 505
e 159 508
e 159 517
e 159 577
e 159 581
e 159 600
e 159 611
e 159 658
e 159 661
e 159 663
e 159 676
e 159 709
e 159 754
e 159 788
e 159 837
e 159 852
e 159 867
e 159 874
e 159 902
e 159 919
e 159 925
e 159 945
e 159 975
e 160 251
e 160 293
e 160 306
e 160 339
e 160 342
e 160 360
e 160 376
e 160 404
e 160 420
e 160 430
e 160 457
e 160 469
e 160 478
e 160 522
e 160 541
e 160 561
e 160 562
e 160 595
e 160 602
e 160 613
e 160 620
e 160 623
e 160 634
e 160 641
e 160 651
e 160 702
e 160 722
e 160 737
e 160 785
e 160 799
e 160 831
e 160 835
e 160 849
e 160 885
e 160 887
e 160 907
e 160 939
e 160 979
e 161 253
e 161 256
e 161 261
e 161 265
e 161 284
e 161 302
e 161 304
e 161 335
e 161 336
e 161 341
e 161 342
e 161 348
e 161 355
e 161 381
e 161 383
e 161 394
e 161 426
e 161 436
e 161 450
e 161 454
e 161 492
e 161 519
e 161 532
e 161 536
e 161 588
e 161 612
e 161 675
e 161 677
e 161 693
e 161 710
e 161 725
e 161 736
e 161 787
e 161 788
e 161 789
e 161 792
e 161 797
e 161 807
e 161 843
e 161 895
e 161 925
e 161 979
e 161 982
e 162 255
e 162 281
e 162 292
e 162 328
e 162 335
e 162 340
e 162 346
e 162 362
e 162 369
e 162 372
e 162 421
e 162 424
e 162 428
e 162 429
e 162 443
e 162 446
e 162 447
e 162 476
e 162 487
e 162 495
e 162 547
e 162 557
e 162 594
e 162 597
e 162 607
e 162 629
e 162 646
e 162 651
e 162 652
e 162 667
e 162 678
e 162 684
e 162 708
e 162 721
e 162 768
e 162 783
e 162 791
e 162 798
e 162 803
e 162 840
e 162 845
e 162 883
e 162 896
e 162 943
e 163 253
e 163 280
e 163 318
e 163 324
e 163 329
e 163 330
e 163 359
e 163 378
e 163 387
e 163 401
e 163 417
e 163 419
e 163 448
e 163 455
e 163 456
e 163 505
e 163 510
e 163 534
e 163 541
e 163 578
e 163 581
e 163 590
e 163 609
e 163 655
e 163 712
e 163 725
e 163 751
e 163 765
e 163 775
e 163 865
e 163 889
e 163 892
e 163 908
e 163 913
e 163 937
e 164 263
e 164 331
e 164 347
e 164 350
e 164 356
e 164 383
e 164 395
e 164 425
e 164 459
e 164 462
e 164 466
e 164 467
e 164 506
e 164 507
e 164 538
e 164 550
e 164 574
e 164 583
e 164 606
e 164 610
e 164 616
e 164 629
e 164 663
e 164 676
e 164 688
e 164 772
e 164 789
e 164 801
e 164 823
e 164 931
e 164 939
e 164 947
e 164 950
e 164 957
e 164 989
e 165 263
e 165 267
e 165 289
e 165 312
e 165 332
e 165 373
e 165 396
e 165 420
e 165 488
e 165 491
e 165 511
e 165 537
e 165 545
e 165 559
e 165 568
e 165 582
e 165 592
e 165 595
e 165 610
e 165 628
e 165 631
e 165 640
e 165 642
e 165 663
e 165 698
e 165 714
e 165 732
e 165 739
e 165 760
e 165 794
e 165 809
e 165 822
e 165 874
e 165 886
e 165 927
e 165 946
e 165 978
e 165 988
e 166 275
e 166 338
e 166 339
e 166 410
e 166 412
e 166 453
e 166 488
e 166 523
e 166 557
e 166 583
e 166 612
e 166 618
e 166 644
e 166 656
e 166 712
e 166 753
e 166 781
e 166 782
e 166 856
e 166 867
e 166 873
e 166 904
e 166 920
e 166 940
e 166 956
e 166 966
e 167 252
e 167 259
e 167 277
e 167 282
e 167 290
e 167 304
e 167 329
e 167 346
e 167 352
e 167 355
e 167 391
e 167 393
e 167 439
e 167 442
e 167 548
e 167 559
e 167 581
e 167 622
e 167 673
e 167 674
e 167 700
e 167 713
e 167 730
e 167 769
e 167 789
e 167 794
e 167 845
e 167 887
e 167 893
e 167 894
e 167 913
e 167 930
e 167 934
e 167 964
e 167 977
e 167 983
e 167 993
e 167 998
e 168 262
e 168 312
e 168 325
e 168 335
e 168 347
e 168 381
e 168 386
e 168 408
e 168 446
e 168 449
e 168 461
e 168 518
e 168 572
e 168 596
e 168 620
e 168 643
e 168 653
e 168 656
e 168 658
e 168 668
e 168 670
e 168 687
e 168 690
e 168 705
e 168 716
e 168 730
e 168 744
e 168 807
e 168 843
e 168 856
e 168 861
e 168 881
e 168 899
e 168 928
e 168 949
e 169 255
e 169 264
e 169 281
e 169 342
e 169 363
e 169 386
e 169 413
e 169 420
e 169 472
e 169 490
e 169 508
e 169 515
e 169 537
e 169 546
e 169 563
e 169 575
e 169 578
e 169 580
e 169 585
e 169 635
e 169 650
e 169 658
e 169 694
e 169 727
e 169 749
e 169 754
e 169 767
e 169 770
e 169 786
e 169 828
e 169 831
e 169 837
e 169 870
e 169 873
e 169 886
e 169 898
e 169 973
e 170 263
e 170 293
e 170 311
e 170 320
e 170 331
e 170 340
e 170 350
e 170 355
e 170 357
e 170 417
e 170 423
e 170 425
e 170 430
e 170 433
e 170 454
e 170 458
e 170 462
e 170 475
e 170 484
e 170 500
e 170 521
e 170 564
e 170 628
e 170 649
e 170 652
e 170 685
e 170 755
e 170 759
e 170 763
e 170 767
e 170 774
e 170 778
e 170 791
e 170 848
e 170 873
e 170 875
e 170 885
e 170 899
e 170 911
e 170 917
e 170 942
e 170 944
e 170 984
e 171 254
e 171 285
e 171 301
e 171 314
e 171 321
e 171 332
e 171 340
e 171 415
e 171 420
e 171 458
e 171 505
e 171 506
e 171 516
e 171 549
e 171 560
e 171 564
e 171 591
e 171 595
e 171 626
e 171 638
e 171 650
e 171 654
e 171 668
e 171 669
e 171 683
e 171 716
e 171 737
e 171 743
e 171 758
e 171 779
e 171 812
e 171 858
e 171 860
e 171 887
e 171 899
e 171 918
e 171 925
e 171 927
e 171 933
e 171 954
e 171 961
e 171 967
e 172 265
e 172 269
e 172 283
e 172 291
e 172 299
e 172 303
e 172 336
e 172 338
e 172 339
e 172 344
e 172 350
e 172 382
e 172 440
e 172 447
e 172 473
e 172 496
e 172 508
e 172 510
e 172 521
e 172 567
e 172 583
e 172 643
e 172 650
e 172 672
e 172 688
e 172 728
e 172 751
e 172 758
e 172 759
e 172 762
e 172 771
e 172 835
e 172 838
e 172 842
e 172 870
e 172 885
e 172 892
e 172 902
e 172 958
e 172 992
e 172 1000
e 173 263
e 173 284
e 173 335
e 173 365
e 173 376
e 173 394
e 173 408
e 173 465
e 173 468
e 173 478
e 173 480
e 173 485
e 173 491
e 173 497
e 173 524
e 173 536
e 173 563
e 173 566
e 173 577
e 173 581
e 173 598
e 173 609
e 173 619
e 173 665
e 173 674
e 173 694
e 173 718
e 173 773
e 173 784
e 173 804
e 173 876
e 173 902
e 173 905
e 173 916
e 173 922
e 173 944
e 173 945
e 173 953
e 173 973
e 173 979
e 173 986
e 174 255
e 174 276
e 174 297
e 174 306
e 174 368
e 174 409
e 174 413
e 174 428
e 174 438
e 174 457
e 174 463
e 174 472
e 174 478
e 174 495
e 174 538
e 174 551
e 174 601
e 174 619
e 174 651
e 174 653
e 174 716
e 174 732
e 174 768
e 174 785
e 174 810
e 174 826
e 174 828
e 174 850
e 174 856
e 174 889
e 174 920
e 174 941
e 174 959
e 174 963
e 174 978
e 175 270
e 175 275
e 175 289
e 175 334
e 175 347
e 175 372
e 175 448
e 175 453
e 175 522
e 175 556
e 175 559
e 175 562
e 175 573
e 175 583
e 175 642
e 175 660
e 175 689
e 175 781
e 175 797
e 175 818
e 175 828
e 175 834
e 175 840
e 175 855
e 175 859
e 175 861
e 175 865
e 175 875
e 175 890
e 175 906
e 175 924
e 175 947
e 175 985
e 175 991
e 175 998
e 176 277
e 176 285
e 176 288
e 176 324
e 176 335
e 176 376
e 176 391
e 176 405
e 176 439
e 176 462
e 176 468
e 176 492
e 176 494
e 176 496
e 176 514
e 176 527
e 176 537
e 176 546
e 176 567
e 176 631
e 176 658
e 176 661
e 176 715
e 176 723
e 176 729
e 176 734
e 176 736
e 176 747
e 176 751
e 176 766
e 176 791
e 176 808
e 176 812
e 176 819
e 176 845
e 176 869
e 176 897
e 176 953
e 176 966
e 176 970
e 176 976
e 176 996
e 177 253
e 177 343
e 177 348
e 177 358
e 177 412
e 177 426
e 177 472
e 177 479
e 177 480
e 177 527
e 177 534
e 177 553
e 177 562
e 177 576
e 177 598
e 177 608
e 177 623
e 177 629
e 177 646
e 177 671
e 177 676
e 177 684
e 177 698
e 177 721
e 177 742
e 177 775
e 177 782
e 177 790
e 177 794
e 177 805
e 177 822
e 177 831
e 177 836
e 177 843
e 177 844
e 177 861
e 177 863
e 177 885
e 177 917
e 177 946
e 177 977
e 177 985
e 178 281
e 178 327
e 178 394
e 178 405
e 178 446
e 178 447
e 178 478
e 178 489
e 178 519
e 178 523
e 178 534
e 178 548
e 178 555
e 178 612
e 178 614
e 178 620
e 178 652
e 178 684
e 178 691
e 178 703
e 178 721
e 178 736
e 178 747
e 178 756
e 178 779
e 178 805
e 178 865
e 178 866
e 178 893
e 178 913
e 178 942
e 178 946
e 178 951
e 178 964
e 178 968
e 178 969
e 179 270
e 179 298
e 179 303
e 179 310
e 179 334
e 179 344
e 179 351
e 179 405
e 179 437
e 179 465
e 179 489
e 179 491
e 179 527
e 179 556
e 179 568
e 179 655
e 179 676
e 179 684
e 179 694
e 179 695
e 179 719
e 179 762
e 179 772
e 179 785
e 179 810
e 179 821
e 179 846
e 179 874
e 179 875
e 179 887
e 179 903
e 179 921
e 179 929
e 179 938
e 179 945
e 179 959
e 179 983
e 179 996
e 180 264
e 180 307
e 180 317
e 180 321
e 180 341
e 180 348
e 180 365
e 180 413
e 180 419
e 180 431
e 180 435
e 180 521
e 180 529
e 180 605
e 180 645
e 180 649
e 180 720
e 180 760
e 180 765
e 180 767
e 180 813
e 180 831
e 180 868
e 180 912
e 180 931
e 180 932
e 180 937
e 180 941
e 180 973
e 181 317
e 181 372
e 181 381
e 181 389
e 181 418
e 181 422
e 181 433
e 181 459
e 181 470
e 181 480
e 181 492
e 181 526
e 181 542
e 181 555
e 181 566
e 181 588
e 181 615
e 181 700
e 181 716
e 181 735
e 181 737
e 181 745
e 181 751
e 181 768
e 181 775
e 181 782
e 181 823
e 181 859
e 181 864
e 181 888
e 181 911
e 181 915
e 181 917
e 181 921
e 181 922
e 181 928
e 181 953
e 182 255
e 182 264
e 182 289
e 182 292
e 182 316
e 182 322
e 182 357
e 182 379
e 182 380
e 182 409
e 182 467
e 182 503
e 182 513
e 182 520
e 182 568
e 182 574
e 182 589
e 182 603
e 182 606
e 182 632
e 182 635
e 182 639
e 182 696
e 182 698
e 182 702
e 182 703
e 182 722
e 182 793
e 182 796
e 182 803
e 182 810
e 182 882
e 182 897
e 182 924
e 182 933
e 182 948
e 182 949
e 182 960
e 182 964
e 182 991
e 183 263
e 183 275
e 183 277
e 183 290
e 183 334
e 183 343
e 183 352
e 183 359
e 183 360
e 183 362
e 183 363
e 183 379
e 183 414
e 183 437
e 183 448
e 183 454
e 183 461
e 183 472
e 183 502
e 183 506
e 183 560
e 183 565
e 183 644
e 183 650
e 183 661
e 183 696
e 183 718
e 183 754
e 183 772
e 183 776
e 183 800
e 183 804
e 183 845
e 183 851
e 183 858
e 183 859
e 183 866
e 183 916
e 183 950
e 183 952
e 183 961
e 183 992
e 184 288
e 184 291
e 184 301
e 184 325
e 184 346
e 184 357
e 184 374
e 184 412
e 184 468
e 184 471
e 184 483
e 184 490
e 184 509
e 184 599
e 184 628
e 184 643
e 184 646
e 184 647
e 184 676
e 184 706
e 184 713
e 184 759
e 184 798
e 184 803
e 184 820
e 184 854
e 184 885
e 184 895
e 184 915
e 184 932
e 184 948
e 184 952
e 184 976
e 184 991
e 184 994
e 185 275
e 185 300
e 185 302
e 185 304
e 185 335
e 185 489
e 185 508
e 185 531
e 185 550
e 185 565
e 185 567
e 185 576
e 185 578
e 185 607
e 185 638
e 185 645
e 185 646
e 185 650
e 185 727
e 185 730
e 185 733
e 185 765
e 185 773
e 185 788
e 185 794
e 185 800
e 185 821
e 185 832
e 185 839
e 185 869
e 185 897
e 185 914
e 185 930
e 185 937
e 185 938
e 185 950
e 185 965
e 185 974
e 186 264
e 186 315
e 186 334
e 186 351
e 186 383
e 186 407
e 186 431
e 186 494
e 186 506
e 186 509
e 186 521
e 186 545
e 186 549
e 186 555
e 186 558
e 186 598
e 186 668
e 186 702
e 186 708
e 186 713
e 186 716
e 186 722
e 186 733
e 186 738
e 186 757
e 186 793
e 186 823
e 186 832
e 186 836
e 186 845
e 186 851
e 186 861
e 186 903
e 186 931
e 186 952
e 187 263
e 187 266
e 187 270
e 187 274
e 187 286
e 187 290
e 187 291
e 187 309
e 187 312
e 187 317
e 187 347
e 187 355
e 187 373
e 187 377
e 187 382
e 187 393
e 187 402
e 187 409
e 187 428
e 187 443
e 187 460
e 187 488
e 187 516
e 187 523
e 187 533
e 187 539
e 187 554
e 187 561
e 187 575
e 187 581
e 187 589
e 187 595
e 187 603
e 187 649
e 187 650
e 187 706
e 187 707
e 187 717
e 187 751
e 187 761
e 187 788
e 187 829
e 187 848
e 187 872
e 187 894
e 187 977
e 188 324
e 188 346
e 188 357
e 188 411
e 188 418
e 188 430
e 188 442
e 188 459
e 188 476
e 188 510
e 188 522
e 188 535
e 188 536
e 188 541
e 188 546
e 188 593
e 188 599
e 188 614
e 188 633
e 188 634
e 188 637
e 188 759
e 188 767
e 188 833
e 188 849
e 188 856
e 188 874
e 188 876
e 188 882
e 188 899
e 188 908
e 188 912
e 188 924
e 188 939
e 188 940
e 188 941
e 188 954
e 189 259
e 189 272
e 189 292
e 189 328
e 189 343
e 189 345
e 189 361
e 189 418
e 189 474
e 189 478
e 189 526
e 189 537
e 189 554
e 189 569
e 189 596
e 189 609
e 189 643
e 189 645
e 189 697
e 189 702
e 189 718
e 189 724
e 189 732
e 189 764
e 189 790
e 189 795
e 189 845
e 189 849
e 189 874
e 189 875
e 189 876
e 189 908
e 189 946
e 189 988
e 189 993
e 189 994
e 190 275
e 190 278
e 190 323
e 190 356
e 190 391
e 190 417
e 190 422
e 190 465
e 190 473
e 190 475
e 190 502
e 190 512
e 190 517
e 190 590
e 190 594
e 190 621
e 190 640
e 190 700
e 190 714
e 190 721
e 190 731
e 190 752
e 190 757
e 190 783
e 190 804
e 190 848
e 190 851
e 190 861
e 190 886
e 190 888
e 190 890
e 190 904
e 190 910
e 190 916
e 190 936
e 190 937
e 190 944
e 190 958
e 190 971
e 191 251
e 191 252
e 191 265
e 191 278
e 191 279
e 191 301
e 191 332
e 191 335
e 191 362
e 191 363
e 191 411
e 191 424
e 191 426
e 191 435
e 191 466
e 191 509
e 191 511
e 191 512
e 191 519
e 191 527
e 191 532
e 191 565
e 191 610
e 191 622
e 191 624
e 191 630
e 191 641
e 191 648
e 191 653
e 191 685
e 191 690
e 191 705
e 191 708
e 191 710
e 191 749
e 191 801
e 191 822
e 191 832
e 191 837
e 191 844
e 191 880
e 191 924
e 191 928
e 191 944
e 191 958
e 192 266
e 192 270
e 192 312
e 192 315
e 192 327
e 192 343
e 192 371
e 192 372
e 192 393
e 192 397
e 192 407
e 192 464
e 192 525
e 192 548
e 192 559
e 192 593
e 192 674
e 192 690
e 192 723
e 192 730
e 192 760
e 192 774
e 192 789
e 192 802
e 192 813
e 192 845
e 192 850
e 192 940
e 192 988
e 193 254
e 193 258
e 193 306
e 193 315
e 193 336
e 193 353
e 193 369
e 193 395
e 193 397
e 193 461
e 193 480
e 193 524
e 193 534
e 193 539
e 193 547
e 193 549
e 193 556
e 193 582
e 193 623
e 193 635
e 193 636
e 193 656
e 193 733
e 193 749
e 193 755
e 193 769
e 193 780
e 193 785
e 193 788
e 193 794
e 193 810
e 193 894
e 193 928
e 193 930
e 193 936
e 193 959
e 194 275
e 194 370
e 194 377
e 194 400
e 194 420
e 194 438
e 194 445
e 194 461
e 194 469
e 194 480
e 194 492
e 194 542
e 194 562
e 194 580
e 194 593
e 194 601
e 194 605
e 194 612
e 194 616
e 194 620
e 194 627
e 194 642
e 194 655
e 194 661
e 194 664
e 194 667
e 194 684
e 194 711
e 194 787
e 194 837
e 194 877
e 194 951
e 194 974
e 194 989
e 194 994
e 195 252
e 195 261
e 195 278
e 195 290
e 195 313
e 195 317
e 195 380
e 195 389
e 195 392
e 195 412
e 195 532
e 195 546
e 195 571
e 195 580
e 195 599
e 195 639
e 195 644
e 195 650
e 195 661
e 195 672
e 195 682
e 195 726
e 195 750
e 195 754
e 195 769
e 195 783
e 195 800
e 195 808
e 195 817
e 195 830
e 195 846
e 195 868
e 195 898
e 195 936
e 195 943
e 195 972
e 195 978
e 196 267
e 196 290
e 196 298
e 196 350
e 196 405
e 196 442
e 196 508
e 196 532
e 196 539
e 196 540
e 196 578
e 196 603
e 196 631
e 196 651
e 196 663
e 196 702
e 196 732
e 196 737
e 196 738
e 196 746
e 196 753
e 196 761
e 196 813
e 196 839
e 196 890
e 196 909
e 196 937
e 196 954
e 197 282
e 197 288
e 197 301
e 197 321
e 197 358
e 197 367
e 197 413
e 197 415
e 197 418
e 197 428
e 197 461
e 197 463
e 197 473
e 197 479
e 197 488
e 197 522
e 197 540
e 197 568
e 197 574
e 197 582
e 197 597
e 197 600
e 197 627
e 197 637
e 197 646
e 197 652
e 197 654
e 197 675
e 197 695
e 197 731
e 197 836
e 197 844
e 197 862
e 197 863
e 197 865
e 197 872
e 197 886
e 197 887
e 197 942
e 197 943
e 197 954
e 197 959
e 197 992
e 198 251
e 198 261
e 198 266
e 198 281
e 198 322
e 198 331
e 198 341
e 198 354
e 198 494
e 198 536
e 198 625
e 198 630
e 198 631
e 198 639
e 198 643
e 198 646
e 198 663
e 198 707
e 198 711
e 198 762
e 198 841
e 198 845
e 198 846
e 198 886
e 198 896
e 198 930
e 198 969
e 198 995
e 199 259
e 199 267
e 199 273
e 199 292
e 199 308
e 199 325
e 199 337
e 199 365
e 199 371
e 199 386
e 199 442
e 199 465
e 199 481
e 199 535
e 199 572
e 199 595
e 199 665
e 199 679
e 199 689
e 199 704
e 199 707
e 199 724
e 199 749
e 199 751
e 199 791
e 199 819
e 199 825
e 199 860
e 199 899
e 199 930
e 199 944
e 200 259
e 200 304
e 200 346
e 200 369
e 200 372
e 200 416
e 200 436
e 200 445
e 200 460
e 200 472
e 200 498
e 200 502
e 200 514
e 200 517
e 200 519
e 200 527
e 200 534
e 200 539
e 200 549
e 200 558
e 200 621
e 200 637
e 200 678
e 200 685
e 200 701
e 200 759
e 200 795
e 200 818
e 200 825
e 200 844
e 200 859
e 200 862
e 200 868
e 200 875
e 200 888
e 200 928
e 200 938
e 200 942
e 201 257
e 201 283
e 201 319
e 201 391
e 201 392
e 201 401
e 201 448
e 201 471
e 201 472
e 201 478
e 201 479
e 201 518
e 201 547
e 201 578
e 201 593
e 201 604
e 201 611
e 201 690
e 201 698
e 201 755
e 201 761
e 201 777
e 201 863
e 201 883
e 201 897
e 201 926
e 201 928
e 201 931
e 201 976
e 201 1000
e 202 278
e 202 279
e 202 294
e 202 317
e 202 331
e 202 372
e 202 383
e 202 399
e 202 408
e 202 411
e 202 417
e 202 432
e 202 510
e 202 601
e 202 608
e 202 622
e 202 633
e 202 660
e 202 686
e 202 694
e 202 822
e 202 837
e 202 843
e 202 869
e 202 922
e 202 938
e 202 955
e 202 966
e 202 976
e 202 989
e 203 254
e 203 274
e 203 278
e 203 280
e 203 310
e 203 313
e 203 331
e 203 344
e 203 367
e 203 392
e 203 487
e 203 493
e 203 506
e 203 516
e 203 531
e 203 535
e 203 556
e 203 611
e 203 633
e 203 643
e 203 657
e 203 665
e 203 735
e 203 739
e 203 756
e 203 791
e 203 799
e 203 817
e 203 829
e 203 845
e 203 849
e 203 873
e 203 875
e 203 914
e 203 926
e 203 928
e 203 933
e 203 938
e 203 939
e 203 943
e 203 961
e 203 968
e 203 980
e 203 996
e 204 271
e 204 307
e 204 312
e 204 349
e 204 361
e 204 365
e 204 382
e 204 407
e 204 408
e 204 409
e 204 424
e 204 451
e 204 453
e 204 468
e 204 476
e 204 488
e 204 496
e 204 573
e 204 616
e 204 620
e 204 654
e 204 704
e 204 747
e 204 762
e 204 792
e 204 819
e 204 823
e 204 872
e 204 951
e 205 265
e 205 267
e 205 331
e 205 344
e 205 352
e 205 357
e 205 404
e 205 415
e 205 463
e 205 489
e 205 514
e 205 525
e 205 539
e 205 553
e 205 565
e 205 566
e 205 591
e 205 618
e 205 625
e 205 627
e 205 635
e 205 643
e 205 663
e 205 698
e 205 699
e 205 742
e 205 745
e 205 775
e 205 792
e 205 795
e 205 839
e 205 849
e 205 854
e 205 856
e 205 927
e 205 969
e 205 977
e 205 981
e 205 1000
e 206 261
e 206 286
e 206 297
e 206 301
e 206 317
e 206 322
e 206 342
e 206 348
e 206 351
e 206 356
e 206 368
e 206 381
e 206 387
e 206 416
e 206 419
e 206 433
e 206 485
e 206 519
e 206 537
e 206 554
e 206 583
e 206 600
e 206 608
e 206 610
e 206 640
e 206 700
e 206 714
e 206 725
e 206 730
e 206 733
e 206 734
e 206 750
e 206 781
e 206 798
e 206 814
e 206 815
e 206 819
e 206 822
e 206 827
e 206 846
e 206 859
e 206 889
e 206 953
e 206 962
e 206 982
e 206 989
e 206 997
e 207 281
e 207 283
e 207 300
e 207 302
e 207 303
e 207 317
e 207 350
e 207 355
e 207 372
e 207 376
e 207 391
e 207 505
e 207 569
e 207 583
e 207 585
e 207 598
e 207 679
e 207 681
e 207 695
e 207 700
e 207 710
e 207 713
e 207 726
e 207 761
e 207 785
e 207 801
e 207 802
e 207 828
e 207 837
e 207 840
e 207 851
e 207 854
e 207 877
e 207 878
e 207 922
e 207 944
e 207 977
e 207 987
e 207 995
e 208 273
e 208 275
e 208 279
e 208 296
e 208 308
e 208 347
e 208 350
e 208 377
e 208 378
e 208 386
e 208 392
e 208 395
e 208 396
e 208 407
e 208 420
e 208 421
e 208 424
e 208 429
e 208 432
e 208 434
e 208 473
e 208 486
e 208 491
e 208 492
e 208 512
e 208 514
e 208 523
e 208 532
e 208 566
e 208 586
e 208 587
e 208 589
e 208 634
e 208 639
e 208 655
e 208 672
e 208 684
e 208 696
e 208 712
e 208 745
e 208 803
e 208 885
e 208 887
e 208 888
e 208 894
e 208 904
e 208 905
e 208 919
e 208 949
e 208 959
e 208 972
e 209 278
e 209 319
e 209 321
e 209 325
e 209 326
e 209 330
e 209 334
e 209 337
e 209 375
e 209 405
e 209 417
e 209 418
e 209 493
e 209 510
e 209 553
e 209 578
e 209 628
e 209 646
e 209 660
e 209 715
e 209 764
e 209 802
e 209 854
e 209 879
e 209 886
e 209 899
e 209 989
e 210 255
e 210 261
e 210 262
e 210 270
e 210 275
e 210 279
e 210 294
e 210 343
e 210 373
e 210 407
e 210 433
e 210 448
e 210 480
e 210 547
e 210 625
e 210 626
e 210 646
e 210 672
e 210 704
e 210 706
e 210 735
e 210 746
e 210 752
e 210 770
e 210 773
e 210 801
e 210 838
e 210 898
e 210 899
e 210 917
e 210 951
e 210 953
e 210 964
e 211 256
e 211 291
e 211 301
e 211 323
e 211 332
e 211 341
e 211 350
e 211 358
e 211 369
e 211 372
e 211 428
e 211 432
e 211 436
e 211 437
e 211 443
e 211 479
e 211 492
e 211 495
e 211 526
e 211 537
e 211 554
e 211 597
e 211 616
e 211 643
e 211 644
e 211 653
e 211 660
e 211 666
e 211 677
e 211 682
e 211 716
e 211 756
e 211 770
e 211 789
e 211 805
e 211 819
e 211 886
e 211 901
e 211 954
e 212 253
e 212 266
e 212 338
e 212 351
e 212 395
e 212 442
e 212 459
e 212 468
e 212 474
e 212 502
e 212 509
e 212 579
e 212 592
e 212 613
e 212 632
e 212 650
e 212 665
e 212 678
e 212 737
e 212 741
e 212 800
e 212 821
e 212 827
e 212 839
e 212 855
e 212 895
e 212 937
e 212 957
e 212 977
e 212 979
e 212 996
e 213 277
e 213 299
e 213 311
e 213 323
e 213 354
e 213 366
e 213 370
e 213 371
e 213 372
e 213 378
e 213 388
e 213 405
e 213 419
e 213 457
e 213 467
e 213 472
e 213 515
e 213 516
e 213 545
e 213 559
e 213 561
e 213 563
e 213 568
e 213 591
e 213 621
e 213 646
e 213 647
e 213 675
e 213 709
e 213 721
e 213 722
e 213 729
e 213 758
e 213 805
e 213 852
e 213 897
e 213 904
e 213 946
e 213 991
e 214 260
e 214 269
e 214 315
e 214 336
e 214 345
e 214 369
e 214 371
e 214 381
e 214 385
e 214 404
e 214 460
e 214 474
e 214 518
e 214 569
e 214 592
e 214 601
e 214 640
e 214 658
e 214 662
e 214 669
e 214 673
e 214 676
e 214 682
e 214 687
e 214 702
e 214 735
e 214 739
e 214 741
e 214 808
e 214 815
e 214 839
e 214 849
e 214 888
e 214 893
e 214 894
e 214 914
e 214 916
e 214 937
e 214 956
e 214 957
e 214 964
e 214 993
e 215 258
e 215 284
e 215 308
e 215 327
e 215 340
e 215 342
e 215 363
e 215 398
e 215 400
e 215 401
e 215 419
e 215 445
e 215 462
e 215 464
e 215 479
e 215 492
e 215 526
e 215 551
e 215 566
e 215 568
e 215 586
e 215 590
e 215 601
e 215 617
e 215 623
e 215 652
e 215 658
e 215 663
e 215 675
e 215 694
e 215 707
e 215 745
e 215 799
e 215 805
e 215 810
e 215 880
e 215 901
e 215 910
e 215 933
e 215 940
e 215 973
e 215 982
e 215 984
e 216 325
e 216 375
e 216 383
e 216 421
e 216 450
e 216 466
e 216 472
e 216 496
e 216 497
e 216 532
e 216 604
e 216 623
e 216 661
e 216 674
e 216 690
e 216 710
e 216 776
e 216 781
e 216 788
e 216 818
e 216 848
e 216 859
e 216 862
e 216 873
e 216 882
e 216 907
e 216 918
e 216 942
e 216 994
e 217 276
e 217 279
e 217 287
e 217 348
e 217 357
e 217 362
e 217 378
e 217 379
e 217 389
e 217 433
e 217 447
e 217 460
e 217 516
e 217 520
e 217 569
e 217 620
e 217 652
e 217 654
e 217 704
e 217 774
e 217 791
e 217 848
e 217 855
e 217 857
e 217 867
e 217 935
e 217 936
e 217 946
e 217 969
e 217 992
e 218 251
e 218 253
e 218 293
e 218 367
e 218 377
e 218 378
e 218 385
e 218 390
e 218 393
e 218 403
e 218 431
e 218 437
e 218 461
e 218 464
e 218 465
e 218 471
e 218 480
e 218 487
e 218 528
e 218 530
e 218 554
e 218 560
e 218 592
e 218 600
e 218 610
e 218 630
e 218 649
e 218 666
e 218 670
e 218 672
e 218 686
e 218 707
e 218 734
e 218 773
e 218 804
e 218 823
e 218 827
e 218 858
e 218 864
e 218 886
e 218 890
e 218 911
e 218 934
e 218 960
e 218 995
e 219 265
e 219 271
e 219 276
e 219 281
e 219 287
e 219 334
e 219 335
e 219 395
e 219 424
e 219 426
e 219 440
e 219 466
e 219 494
e 219 538
e 219 543
e 219 545
e 219 558
e 219 565
e 219 570
e 219 572
e 219 577
e 219 579
e 219 635
e 219 682
e 219 686
e 219 695
e 219 699
e 219 701
e 219 731
e 219 764
e 219 769
e 219 785
e 219 790
e 219 797
e 219 810
e 219 833
e 219 834
e 219 846
e 219 855
e 219 870
e 219 871
e 219 885
e 219 904
e 219 906
e 219 916
e 219 929
e 219 938
e 219 939
e 219 970
e 219 998
e 220 263
e 220 317
e 220 330
e 220 342
e 220 402
e 220 418
e 220 420
e 220 421
e 220 495
e 220 517
e 220 524
e 220 527
e 220 547
e 220 568
e 220 600
e 220 604
e 220 644
e 220 650
e 220 699
e 220 717
e 220 723
e 220 732
e 220 763
e 220 799
e 220 838
e 220 864
e 220 868
e 220 927
e 220 937
e 220 943
e 220 954
e 220 991
e 221 309
e 221 338
e 221 346
e 221 364
e 221 385
e 221 426
e 221 471
e 221 484
e 221 554
e 221 566
e 221 569
e 221 592
e 221 654
e 221 666
e 221 717
e 221 725
e 221 745
e 221 748
e 221 752
e 221 758
e 221 768
e 221 772
e 221 792
e 221 820
e 221 886
e 221 891
e 221 892
e 221 916
e 221 919
e 221 943
e 221 949
e 222 265
e 222 276
e 222 295
e 222 309
e 222 310
e 222 325
e 222 351
e 222 354
e 222 436
e 222 440
e 222 451
e 222 459
e 222 524
e 222 577
e 222 608
e 222 620
e 222 621
e 222 661
e 222 669
e 222 714
e 222 716
e 222 799
e 222 809
e 222 812
e 222 828
e 222 840
e 222 859
e 222 898
e 222 903
e 222 904
e 222 935
e 222 969
e 223 260
e 223 262
e 223 274
e 223 281
e 223 338
e 223 355
e 223 395
e 223 415
e 223 426
e 223 436
e 223 473
e 223 474
e 223 506
e 223 512
e 223 679
e 223 680
e 223 696
e 223 738
e 223 765
e 223 768
e 223 780
e 223 787
e 223 796
e 223 827
e 223 840
e 223 842
e 223 862
e 223 874
e 223 876
e 223 883
e 223 884
e 223 886
e 223 890
e 223 933
e 223 943
e 223 958
e 223 963
e 223 969
e 223 993
e 224 309
e 224 339
e 224 375
e 224 417
e 224 441
e 224 495
e 224 530
e 224 578
e 224 614
e 224 616
e 224 664
e 224 669
e 224 671
e 224 736
e 224 752
e 224 755
e 224 763
e 224 814
e 224 817
e 224 857
e 224 877
e 224 882
e 224 904
e 224 905
e 224 916
e 224 947
e 224 957
e 224 999
e 225 261
e 225 268
e 225 285
e 225 289
e 225 298
e 225 299
e 225 305
e 225 315
e 225 356
e 225 358
e 225 371
e 225 399
e 225 405
e 225 457
e 225 459
e 225 464
e 225 470
e 225 473
e 225 489
e 225 513
e 225 569
e 225 624
e 225 625
e 225 655
e 225 693
e 225 721
e 225 726
e 225 737
e 225 741
e 225 744
e 225 748
e 225 756
e 225 759
e 225 786
e 225 789
e 225 794
e 225 805
e 225 807
e 225 808
e 225 818
e 225 855
e 225 876
e 225 877
e 225 904
e 225 942
e 225 980
e 226 317
e 226 343
e 226 347
e 226 360
e 226 378
e 226 382
e 226 394
e 226 399
e 226 401
e 226 416
e 226 421
e 226 445
e 226 450
e 226 482
e 226 486
e 226 512
e 226 550
e 226 552
e 226 569
e 226 641
e 226 651
e 226 693
e 226 742
e 226 766
e 226 792
e 226 802
e 226 839
e 226 861
e 226 890
e 226 894
e 226 896
e 226 901
e 226 918
e 226 934
e 226 958
e 226 967
e 226 978
e 226 997
e 227 264
e 227 292
e 227 301
e 227 407
e 227 453
e 227 461
e 227 462
e 227 473
e 227 475
e 227 493
e 227 495
e 227 538
e 227 550
e 227 552
e 227 573
e 227 606
e 227 616
e 227 624
e 227 630
e 227 637
e 227 638
e 227 658
e 227 673
e 227 741
e 227 800
e 227 815
e 227 823
e 227 848
e 227 849
e 227 870
e 227 890
e 227 910
e 227 919
e 227 932
e 227 948
e 227 950
e 227 958
e 227 967
e 227 977
e 227 982
e 227 989
e 228 257
e 228 274
e 228 275
e 228 305
e 228 346
e 228 347
e 228 351
e 228 353
e 228 354
e 228 361
e 228 382
e 228 392
e 228 405
e 228 410
e 228 445
e 228 481
e 228 555
e 228 570
e 228 582
e 228 602
e 228 639
e 228 646
e 228 686
e 228 699
e 228 703
e 228 727
e 228 733
e 228 750
e 228 754
e 228 770
e 228 816
e 228 817
e 228 839
e 228 877
e 228 880
e 228 903
e 228 937
e 228 953
e 229 264
e 229 333
e 229 368
e 229 372
e 229 384
e 229 390
e 229 453
e 229 461
e 229 481
e 229 497
e 229 515
e 229 531
e 229 537
e 229 543
e 229 555
e 229 573
e 229 582
e 229 585
e 229 587
e 229 619
e 229 653
e 229 654
e 229 746
e 229 753
e 229 785
e 229 801
e 229 827
e 229 834
e 229 870
e 229 871
e 229 882
e 229 889
e 229 934
e 229 965
e 229 966
e 229 968
e 229 983
e 229 993
e 229 997
e 230 272
e 230 327
e 230 361
e 230 382
e 230 391
e 230 401
e 230 421
e 230 423
e 230 457
e 230 463
e 230 502
e 230 509
e 230 512
e 230 532
e 230 540
e 230 541
e 230 544
e 230 554
e 230 571
e 230 595
e 230 630
e 230 648
e 230 661
e 230 693
e 230 698
e 230 718
e 230 807
e 230 809
e 230 827
e 230 846
e 230 865
e 230 882
e 230 895
e 230 910
e 230 919
e 230 933
e 230 942
e 230 983
e 230 992
e 230 994
e 231 283
e 231 323
e 231 324
e 231 376
e 231 415
e 231 427
e 231 449
e 231 463
e 231 479
e 231 507
e 231 508
e 231 553
e 231 566
e 231 590
e 231 658
e 231 663
e 231 741
e 231 762
e 231 768
e 231 774
e 231 877
e 231 882
e 231 894
e 231 950
e 231 965
e 231 968
e 231 969
e 231 987
e 231 994
e 232 287
e 232 334
e 232 349
e 232 363
e 232 365
e 232 382
e 232 387
e 232 418
e 232 449
e 232 464
e 232 477
e 232 485
e 232 521
e 232 542
e 232 564
e 232 586
e 232 609
e 232 637
e 232 653
e 232 668
e 232 680
e 232 691
e 232 700
e 232 728
e 232 729
e 232 731
e 232 748
e 232 756
e 232 842
e 232 845
e 232 916
e 232 919
e 232 956
e 232 968
e 232 976
e 233 266
e 233 313
e 233 324
e 233 356
e 233 357
e 233 377
e 233 388
e 233 430
e 233 438
e 233 443
e 233 520
e 233 534
e 233 537
e 233 558
e 233 581
e 233 583
e 233 586
e 233 596
e 233 597
e 233 671
e 233 748
e 233 749
e 233 750
e 233 752
e 233 775
e 233 778
e 233 792
e 233 798
e 233 809
e 233 867
e 233 869
e 233 920
e 233 934
e 233 949
e 233 992
e 234 273
e 234 345
e 234 366
e 234 375
e 234 381
e 234 394
e 234 483
e 234 502
e 234 551
e 234 572
e 234 595
e 234 603
e 234 610
e 234 621
e 234 663
e 234 679
e 234 713
e 234 739
e 234 741
e 234 759
e 234 772
e 234 790
e 234 822
e 234 881
e 234 883
e 234 885
e 234 909
e 234 942
e 234 943
e 234 970
e 234 984
e 234 991
e 235 300
e 235 340
e 235 375
e 235 381
e 235 415
e 235 439
e 235 500
e 235 509
e 235 553
e 235 559
e 235 579
e 235 619
e 235 649
e 235 650
e 235 655
e 235 667
e 235 673
e 235 700
e 235 753
e 235 768
e 235 782
e 235 797
e 235 829
e 235 845
e 235 864
e 235 870
e 235 874
e 235 920
e 235 957
e 235 959
e 235 969
e 235 991
e 236 268
e 236 277
e 236 279
e 236 340
e 236 345
e 236 378
e 236 385
e 236 402
e 236 441
e 236 457
e 236 492
e 236 509
e 236 517
e 236 525
e 236 529
e 236 537
e 236 601
e 236 644
e 236 653
e 236 663
e 236 666
e 236 667
e 236 697
e 236 713
e 236 715
e 236 761
e 236 782
e 236 810
e 236 908
e 236 921
e 236 932
e 236 951
e 236 960
e 236 964
e 236 970
e 237 276
e 237 280
e 237 283
e 237 303
e 237 335
e 237 361
e 237 384
e 237 405
e 237 478
e 237 482
e 237 517
e 237 537
e 237 543
e 237 585
e 237 593
e 237 596
e 237 634
e 237 729
e 237 748
e 237 761
e 237 764
e 237 778
e 237 781
e 237 797
e 237 803
e 237 858
e 237 960
e 237 964
e 237 969
e 238 256
e 238 271
e 238 305
e 238 312
e 238 318
e 238 332
e 238 407
e 238 426
e 238 455
e 238 470
e 238 566
e 238 572
e 238 573
e 238 578
e 238 585
e 238 593
e 238 621
e 238 640
e 238 641
e 238 648
e 238 649
e 238 651
e 238 659
e 238 685
e 238 696
e 238 704
e 238 706
e 238 710
e 238 722
e 238 740
e 238 781
e 238 787
e 238 809
e 238 813
e 238 814
e 238 823
e 238 830
e 238 838
e 238 854
e 238 870
e 238 935
e 239 268
e 239 276
e 239 281
e 239 398
e 239 415
e 239 422
e 239 441
e 239 442
e 239 459
e 239 461
e 239 472
e 239 478
e 239 483
e 239 542
e 239 544
e 239 560
e 239 580
e 239 609
e 239 610
e 239 611
e 239 637
e 239 649
e 239 661
e 239 662
e 239 669
e 239 681
e 239 699
e 239 709
e 239 739
e 239 796
e 239 819
e 239 830
e 239 862
e 239 870
e 239 877
e 239 920
e 239 964
e 239 983
e 239 989
e 240 288
e 240 302
e 240 322
e 240 324
e 240 351
e 240 360
e 240 361
e 240 387
e 240 423
e 240 429
e 240 462
e 240 481
e 240 501
e 240 506
e 240 534
e 240 539
e 240 597
e 240 598
e 240 609
e 240 615
e 240 624
e 240 652
e 240 653
e 240 676
e 240 715
e 240 749
e 240 785
e 240 799
e 240 825
e 240 886
e 240 935
e 240 965
e 240 975
e 240 990
e 241 254
e 241 309
e 241 331
e 241 342
e 241 358
e 241 373
e 241 417
e 241 425
e 241 429
e 241 439
e 241 470
e 241 526
e 241 547
e 241 551
e 241 553
e 241 567
e 241 610
e 241 633
e 241 642
e 241 653
e 241 661
e 241 668
e 241 674
e 241 678
e 241 691
e 241 697
e 241 721
e 241 739
e 241 743
e 241 755
e 241 787
e 241 793
e 241 795
e 241 797
e 241 808
e 241 813
e 241 838
e 241 840
e 241 880
e 241 901
e 241 903
e 241 935
e 241 943
e 241 952
e 241 992
e 242 263
e 242 332
e 242 369
e 242 420
e 242 425
e 242 432
e 242 439
e 242 446
e 242 464
e 242 468
e 242 473
e 242 480
e 242 483
e 242 502
e 242 514
e 242 517
e 242 531
e 242 534
e 242 571
e 242 586
e 242 614
e 242 622
e 242 691
e 242 747
e 242 780
e 242 797
e 242 810
e 242 811
e 242 902
e 242 936
e 242 938
e 242 963
e 242 964
e 242 994
e 243 268
e 243 286
e 243 295
e 243 300
e 243 306
e 243 328
e 243 331
e 243 374
e 243 384
e 243 387
e 243 392
e 243 438
e 243 446
e 243 450
e 243 462
e 243 544
e 243 598
e 243 602
e 243 612
e 243 629
e 243 632
e 243 647
e 243 664
e 243 666
e 243 717
e 243 721
e 243 747
e 243 760
e 243 764
e 243 765
e 243 792
e 243 833
e 243 834
e 243 849
e 243 859
e 243 870
e 243 891
e 243 901
e 243 918
e 243 923
e 243 931
e 244 262
e 244 287
e 244 295
e 244 318
e 244 319
e 244 358
e 244 377
e 244 424
e 244 449
e 244 456
e 244 480
e 244 487
e 244 495
e 244 496
e 244 526
e 244 546
e 244 571
e 244 593
e 244 629
e 244 665
e 244 669
e 244 683
e 244 687
e 244 707
e 244 755
e 244 756
e 244 793
e 244 801
e 244 852
e 244 871
e 244 873
e 244 882
e 244 885
e 244 898
e 244 910
e 244 923
e 244 929
e 244 932
e 244 963
e 244 968
e 244 992
e 245 273
e 245 286
e 245 310
e 245 321
e 245 335
e 245 348
e 245 379
e 245 413
e 245 480
e 245 501
e 245 504
e 245 513
e 245 518
e 245 533
e 245 652
e 245 660
e 245 661
e 245 688
e 245 700
e 245 710
e 245 765
e 245 783
e 245 789
e 245 853
e 245 859
e 245 867
e 245 886
e 245 900
e 245 930
e 245 934
e 245 970
e 246 261
e 246 262
e 246 353
e 246 379
e 246 386
e 246 390
e 246 399
e 246 417
e 246 420
e 246 455
e 246 470
e 246 527
e 246 533
e 246 535
e 246 571
e 246 583
e 246 597
e 246 598
e 246 606
e 246 620
e 246 678
e 246 693
e 246 699
e 246 705
e 246 712
e 246 732
e 246 733
e 246 767
e 246 818
e 246 819
e 246 873
e 246 937
e 246 956
e 246 971
e 246 979
e 246 983
e 246 993
e 247 360
e 247 407
e 247 430
e 247 431
e 247 470
e 247 501
e 247 546
e 247 601
e 247 602
e 247 634
e 247 644
e 247 657
e 247 681
e 247 691
e 247 701
e 247 704
e 247 773
e 247 778
e 247 801
e 247 803
e 247 810
e 247 812
e 247 828
e 247 841
e 247 842
e 247 890
e 247 918
e 247 955
e 247 983
e 248 265
e 248 281
e 248 283
e 248 306
e 248 316
e 248 334
e 248 342
e 248 355
e 248 357
e 248 461
e 248 504
e 248 523
e 248 544
e 248 546
e 248 554
e 248 557
e 248 559
e 248 594
e 248 599
e 248 628
e 248 668
e 248 703
e 248 732
e 248 778
e 248 885
e 248 953
e 248 984
e 249 254
e 249 268
e 249 280
e 249 290
e 249 316
e 249 323
e 249 374
e 249 382
e 249 389
e 249 424
e 249 438
e 249 446
e 249 453
e 249 510
e 249 556
e 249 558
e 249 560
e 249 643
e 249 678
e 249 688
e 249 697
e 249 716
e 249 717
e 249 799
e 249 811
e 249 822
e 249 832
e 249 840
e 249 843
e 249 844
e 249 853
e 249 926
e 249 955
e 249 965
e 249 971
e 249 980
e 250 259
e 250 282
e 250 304
e 250 329
e 250 343
e 250 354
e 250 362
e 250 380
e 250 449
e 250 457
e 250 495
e 250 505
e 250 509
e 250 534
e 250 544
e 250 553
e 250 564
e 250 570
e 250 584
e 250 599
e 250 639
e 250 675
e 250 743
e 250 745
e 250 804
e 250 811
e 250 854
e 250 876
e 250 895
e 250 900
e 250 922
e 250 978
