p edge 1000 18933
e 1 256
e 1 267
e 1 272
e 1 274
e 1 298
e 1 300
e 1 308
e 1 311
e 1 322
e 1 335
e 1 352
e 1 370
e 1 379
e 1 396
e 1 409
e 1 413
e 1 419
e 1 429
e 1 434
e 1 437
e 1 445
e 1 509
e 1 518
e 1 530
e 1 543
e 1 545
e 1 550
e 1 569
e 1 582
e 1 583
e 1 596
e 1 600
e 1 602
e 1 637
e 1 659
e 1 660
e 1 672
e 1 675
e 1 681
e 1 684
e 1 685
e 1 701
e 1 702
e 1 703
e 1 706
e 1 717
e 1 720
e 1 729
e 1 735
e 1 741
e 1 750
e 1 754
e 1 758
e 1 766
e 1 790
e 1 792
e 1 802
e 1 810
e 1 813
e 1 834
e 1 835
e 1 851
e 1 859
e 1 879
e 1 882
e 1 886
e 1 897
e 1 909
e 1 917
e 1 932
e 1 943
e 1 949
e 1 959
e 1 961
e 1 964
e 1 995
e 2 282
e 2 284
e 2 288
e 2 314
e 2 355
e 2 360
e 2 370
e 2 373
e 2 381
e 2 386
e 2 388
e 2 403
e 2 436
e 2 437
e 2 440
e 2 444
e 2 451
e 2 467
e 2 473
e 2 476
e 2 477
e 2 486
e 2 492
e 2 503
e 2 529
e 2 531
e 2 559
e 2 567
e 2 573
e 2 575
e 2 580
e 2 586
e 2 600
e 2 601
e 2 619
e 2 637
e 2 651
e 2 652
e 2 665
e 2 678
e 2 679
e 2 685
e 2 694
e 2 703
e 2 727
e 2 747
e 2 749
e 2 775
e 2 777
e 2 794
e 2 799
e 2 802
e 2 816
e 2 856
e 2 862
e 2 878
e 2 879
e 2 881
e 2 891
e 2 897
e 2 906
e 2 926
e 2 962
e 2 963
e 2 979
e 3 253
e 3 259
e 3 274
e 3 278
e 3 279
e 3 305
e 3 310
e 3 313
e 3 323
e 3 343
e 3 351
e 3 358
e 3 380
e 3 381
e 3 388
e 3 398
e 3 402
e 3 418
e 3 434
e 3 446
e 3 451
e 3 471
e 3 485
e 3 506
e 3 510
e 3 545
e 3 555
e 3 559
e 3 561
e 3 575
e 3 590
e 3 601
e 3 608
e 3 618
e 3 631
e 3 652
e 3 653
e 3 674
e 3 678
e 3 698
e 3 705
e 3 714
e 3 717
e 3 721
e 3 742
e 3 759
e 3 764
e 3 777
e 3 787
e 3 821
e 3 823
e 3 830
e 3 834
e 3 837
e 3 845
e 3 859
e 3 887
e 3 937
e 3 938
e 3 959
e 3 966
e 3 974
e 3 977
e 3 979
e 4 259
e 4 264
e 4 265
e 4 275
e 4 280
e 4 308
e 4 314
e 4 315
e 4 319
e 4 322
e 4 324
e 4 348
e 4 364
e 4 366
e 4 393
e 4 405
e 4 417
e 4 423
e 4 431
e 4 448
e 4 458
e 4 475
e 4 483
e 4 491
e 4 516
e 4 526
e 4 555
e 4 557
e 4 578
e 4 586
e 4 602
e 4 609
e 4 611
e 4 625
e 4 627
e 4 630
e 4 632
e 4 651
e 4 652
e 4 654
e 4 658
e 4 665
e 4 678
e 4 693
e 4 694
e 4 726
e 4 727
e 4 737
e 4 753
e 4 754
e 4 766
e 4 768
e 4 773
e 4 779
e 4 795
e 4 796
e 4 797
e 4 804
e 4 805
e 4 810
e 4 823
e 4 827
e 4 836
e 4 841
e 4 846
e 4 857
e 4 864
e 4 878
e 4 879
e 4 888
e 4 901
e 4 908
e 4 932
e 4 933
e 4 950
e 4 951
e 4 964
e 4 976
e 4 989
e 4 991
e 4 999
e 5 260
e 5 267
e 5 278
e 5 309
e 5 332
e 5 361
e 5 362
e 5 364
e 5 372
e 5 377
e 5 378
e 5 382
e 5 400
e 5 416
e 5 425
e 5 471
e 5 502
e 5 518
e 5 521
e 5 537
e 5 554
e 5 573
e 5 578
e 5 584
e 5 587
e 5 617
e 5 628
e 5 636
e 5 639
e 5 640
e 5 642
e 5 657
e 5 686
e 5 694
e 5 697
e 5 699
e 5 705
e 5 708
e 5 709
e 5 740
e 5 749
e 5 753
e 5 754
e 5 756
e 5 764
e 5 769
e 5 776
e 5 785
e 5 789
e 5 799
e 5 803
e 5 808
e 5 809
e 5 810
e 5 821
e 5 824
e 5 830
e 5 861
e 5 877
e 5 886
e 5 907
e 5 927
e 5 931
e 5 939
e 5 943
e 5 958
e 5 969
e 5 979
e 5 981
e 5 998
e 6 251
e 6 266
e 6 276
e 6 280
e 6 284
e 6 292
e 6 301
e 6 303
e 6 312
e 6 318
e 6 326
e 6 340
e 6 348
e 6 386
e 6 399
e 6 411
e 6 422
e 6 425
e 6 430
e 6 431
e 6 439
e 6 441
e 6 461
e 6 472
e 6 483
e 6 488
e 6 512
e 6 517
e 6 521
e 6 528
e 6 537
e 6 543
e 6 559
e 6 575
e 6 586
e 6 597
e 6 620
e 6 629
e 6 633
e 6 634
e 6 682
e 6 683
e 6 688
e 6 689
e 6 701
e 6 708
e 6 715
e 6 716
e 6 724
e 6 729
e 6 750
e 6 754
e 6 759
e 6 771
e 6 788
e 6 790
e 6 824
e 6 832
e 6 835
e 6 840
e 6 863
e 6 864
e 6 891
e 6 899
e 6 929
e 6 933
e 6 935
e 6 942
e 6 961
e 6 973
e 6 984
e 6 999
e 7 252
e 7 262
e 7 266
e 7 268
e 7 283
e 7 294
e 7 297
e 7 309
e 7 318
e 7 319
e 7 332
e 7 336
e 7 344
e 7 358
e 7 371
e 7 376
e 7 389
e 7 393
e 7 403
e 7 432
e 7 435
e 7 436
e 7 438
e 7 448
e 7 449
e 7 451
e 7 459
e 7 471
e 7 488
e 7 506
e 7 522
e 7 534
e 7 547
e 7 551
e 7 557
e 7 559
e 7 562
e 7 564
e 7 580
e 7 632
e 7 643
e 7 650
e 7 655
e 7 659
e 7 677
e 7 682
e 7 683
e 7 687
e 7 694
e 7 701
e 7 707
e 7 709
e 7 712
e 7 728
e 7 730
e 7 731
e 7 735
e 7 753
e 7 760
e 7 772
e 7 781
e 7 796
e 7 801
e 7 819
e 7 829
e 7 833
e 7 853
e 7 855
e 7 894
e 7 909
e 7 930
e 7 944
e 7 966
e 7 968
e 7 972
e 7 989
e 7 997
e 8 282
e 8 285
e 8 287
e 8 298
e 8 305
e 8 325
e 8 345
e 8 359
e 8 364
e 8 375
e 8 379
e 8 425
e 8 429
e 8 459
e 8 469
e 8 491
e 8 498
e 8 499
e 8 501
e 8 518
e 8 525
e 8 543
e 8 545
e 8 549
e 8 553
e 8 558
e 8 601
e 8 612
e 8 616
e 8 627
e 8 636
e 8 650
e 8 664
e 8 669
e 8 722
e 8 728
e 8 730
e 8 740
e 8 747
e 8 749
e 8 751
e 8 775
e 8 777
e 8 782
e 8 790
e 8 795
e 8 798
e 8 807
e 8 819
e 8 832
e 8 841
e 8 850
e 8 859
e 8 861
e 8 883
e 8 887
e 8 905
e 8 918
e 8 951
e 8 967
e 8 979
e 8 980
e 8 981
e 8 992
e 8 993
e 9 251
e 9 255
e 9 261
e 9 289
e 9 291
e 9 293
e 9 297
e 9 298
e 9 303
e 9 312
e 9 313
e 9 314
e 9 341
e 9 366
e 9 380
e 9 395
e 9 406
e 9 410
e 9 411
e 9 427
e 9 429
e 9 430
e 9 436
e 9 456
e 9 461
e 9 465
e 9 469
e 9 471
e 9 473
e 9 478
e 9 498
e 9 514
e 9 515
e 9 519
e 9 522
e 9 532
e 9 535
e 9 549
e 9 557
e 9 558
e 9 583
e 9 584
e 9 585
e 9 588
e 9 604
e 9 612
e 9 613
e 9 635
e 9 647
e 9 664
e 9 683
e 9 691
e 9 721
e 9 734
e 9 774
e 9 810
e 9 812
e 9 830
e 9 835
e 9 837
e 9 854
e 9 858
e 9 862
e 9 881
e 9 885
e 9 892
e 9 900
e 9 908
e 9 912
e 9 918
e 9 919
e 9 937
e 9 943
e 9 989
e 9 993
e 10 255
e 10 256
e 10 270
e 10 276
e 10 294
e 10 306
e 10 308
e 10 312
e 10 322
e 10 324
e 10 339
e 10 356
e 10 361
e 10 362
e 10 364
e 10 366
e 10 369
e 10 383
e 10 387
e 10 393
e 10 394
e 10 403
e 10 405
e 10 409
e 10 427
e 10 429
e 10 441
e 10 452
e 10 456
e 10 468
e 10 469
e 10 476
e 10 477
e 10 483
e 10 486
e 10 495
e 10 496
e 10 516
e 10 519
e 10 534
e 10 539
e 10 541
e 10 543
e 10 545
e 10 553
e 10 568
e 10 570
e 10 581
e 10 582
e 10 588
e 10 589
e 10 611
e 10 613
e 10 619
e 10 627
e 10 639
e 10 642
e 10 647
e 10 649
e 10 663
e 10 679
e 10 689
e 10 718
e 10 727
e 10 738
e 10 764
e 10 765
e 10 781
e 10 783
e 10 792
e 10 800
e 10 801
e 10 827
e 10 836
e 10 837
e 10 838
e 10 855
e 10 859
e 10 865
e 10 880
e 10 882
e 10 891
e 10 900
e 10 905
e 10 919
e 10 940
e 10 941
e 10 954
e 10 975
e 10 980
e 10 989
e 10 990
e 11 257
e 11 269
e 11 272
e 11 274
e 11 277
e 11 287
e 11 307
e 11 322
e 11 341
e 11 342
e 11 375
e 11 381
e 11 382
e 11 390
e 11 395
e 11 407
e 11 426
e 11 427
e 11 452
e 11 467
e 11 491
e 11 499
e 11 516
e 11 546
e 11 552
e 11 559
e 11 585
e 11 602
e 11 603
e 11 617
e 11 632
e 11 635
e 11 645
e 11 651
e 11 682
e 11 696
e 11 721
e 11 730
e 11 736
e 11 759
e 11 760
e 11 774
e 11 828
e 11 832
e 11 833
e 11 835
e 11 846
e 11 885
e 11 888
e 11 891
e 11 902
e 11 904
e 11 916
e 11 917
e 11 920
e 11 922
e 11 923
e 11 934
e 11 948
e 11 951
e 11 955
e 11 989
e 11 995
e 11 1000
e 12 271
e 12 278
e 12 282
e 12 283
e 12 286
e 12 287
e 12 291
e 12 292
e 12 308
e 12 325
e 12 329
e 12 330
e 12 331
e 12 335
e 12 349
e 12 360
e 12 363
e 12 366
e 12 367
e 12 386
e 12 387
e 12 395
e 12 415
e 12 416
e 12 426
e 12 452
e 12 463
e 12 487
e 12 519
e 12 520
e 12 522
e 12 524
e 12 534
e 12 535
e 12 543
e 12 553
e 12 559
e 12 582
e 12 585
e 12 610
e 12 611
e 12 624
e 12 625
e 12 630
e 12 635
e 12 641
e 12 643
e 12 666
e 12 680
e 12 683
e 12 684
e 12 696
e 12 704
e 12 733
e 12 738
e 12 744
e 12 749
e 12 760
e 12 765
e 12 773
e 12 784
e 12 789
e 12 817
e 12 823
e 12 825
e 12 838
e 12 842
e 12 857
e 12 868
e 12 882
e 12 893
e 12 895
e 12 896
e 12 897
e 12 907
e 12 910
e 12 912
e 12 915
e 12 918
e 12 919
e 12 929
e 12 932
e 12 935
e 12 960
e 12 974
e 12 985
e 12 990
e 12 994
e 12 997
e 13 270
e 13 273
e 13 296
e 13 310
e 13 314
e 13 319
e 13 337
e 13 348
e 13 361
e 13 367
e 13 378
e 13 383
e 13 397
e 13 416
e 13 417
e 13 441
e 13 452
e 13 458
e 13 536
e 13 542
e 13 547
e 13 548
e 13 572
e 13 583
e 13 586
e 13 590
e 13 594
e 13 605
e 13 606
e 13 610
e 13 617
e 13 637
e 13 638
e 13 645
e 13 651
e 13 660
e 13 665
e 13 676
e 13 687
e 13 688
e 13 703
e 13 710
e 13 732
e 13 738
e 13 759
e 13 769
e 13 783
e 13 798
e 13 800
e 13 806
e 13 811
e 13 813
e 13 816
e 13 822
e 13 823
e 13 830
e 13 851
e 13 854
e 13 862
e 13 876
e 13 885
e 13 888
e 13 894
e 13 907
e 13 911
e 13 925
e 13 934
e 13 937
e 13 939
e 13 959
e 13 961
e 13 971
e 13 972
e 13 987
e 14 252
e 14 264
e 14 266
e 14 280
e 14 292
e 14 293
e 14 314
e 14 327
e 14 337
e 14 344
e 14 356
e 14 362
e 14 367
e 14 380
e 14 382
e 14 395
e 14 396
e 14 438
e 14 449
e 14 464
e 14 472
e 14 487
e 14 500
e 14 506
e 14 508
e 14 515
e 14 516
e 14 517
e 14 519
e 14 523
e 14 562
e 14 593
e 14 598
e 14 600
e 14 611
e 14 633
e 14 654
e 14 662
e 14 666
e 14 674
e 14 678
e 14 681
e 14 682
e 14 684
e 14 688
e 14 695
e 14 711
e 14 738
e 14 743
e 14 775
e 14 806
e 14 829
e 14 831
e 14 835
e 14 846
e 14 853
e 14 858
e 14 862
e 14 864
e 14 880
e 14 888
e 14 891
e 14 901
e 14 904
e 14 923
e 14 937
e 14 945
e 14 977
e 14 1000
e 15 260
e 15 262
e 15 263
e 15 269
e 15 275
e 15 278
e 15 290
e 15 298
e 15 312
e 15 316
e 15 328
e 15 329
e 15 345
e 15 407
e 15 412
e 15 418
e 15 432
e 15 440
e 15 447
e 15 452
e 15 460
e 15 462
e 15 478
e 15 491
e 15 494
e 15 501
e 15 508
e 15 510
e 15 520
e 15 539
e 15 546
e 15 557
e 15 569
e 15 574
e 15 580
e 15 583
e 15 584
e 15 606
e 15 633
e 15 646
e 15 649
e 15 652
e 15 655
e 15 667
e 15 686
e 15 718
e 15 719
e 15 749
e 15 773
e 15 775
e 15 779
e 15 791
e 15 800
e 15 804
e 15 808
e 15 811
e 15 812
e 15 823
e 15 830
e 15 838
e 15 841
e 15 844
e 15 855
e 15 857
e 15 863
e 15 876
e 15 926
e 15 935
e 15 976
e 15 990
e 15 995
e 16 255
e 16 268
e 16 282
e 16 288
e 16 313
e 16 322
e 16 328
e 16 337
e 16 345
e 16 348
e 16 353
e 16 362
e 16 369
e 16 371
e 16 383
e 16 391
e 16 404
e 16 414
e 16 419
e 16 434
e 16 458
e 16 460
e 16 463
e 16 466
e 16 467
e 16 473
e 16 482
e 16 494
e 16 495
e 16 508
e 16 512
e 16 534
e 16 540
e 16 545
e 16 553
e 16 558
e 16 573
e 16 578
e 16 583
e 16 584
e 16 596
e 16 624
e 16 632
e 16 633
e 16 648
e 16 652
e 16 655
e 16 671
e 16 696
e 16 706
e 16 715
e 16 733
e 16 747
e 16 757
e 16 759
e 16 779
e 16 783
e 16 785
e 16 786
e 16 800
e 16 806
e 16 812
e 16 840
e 16 871
e 16 876
e 16 890
e 16 907
e 16 923
e 16 924
e 16 937
e 16 945
e 16 946
e 16 950
e 16 973
e 16 986
e 16 991
e 16 993
e 17 251
e 17 259
e 17 269
e 17 270
e 17 294
e 17 314
e 17 322
e 17 325
e 17 332
e 17 351
e 17 352
e 17 361
e 17 384
e 17 403
e 17 404
e 17 408
e 17 412
e 17 421
e 17 426
e 17 432
e 17 439
e 17 441
e 17 446
e 17 447
e 17 457
e 17 458
e 17 465
e 17 480
e 17 483
e 17 490
e 17 503
e 17 504
e 17 519
e 17 524
e 17 531
e 17 537
e 17 559
e 17 572
e 17 573
e 17 579
e 17 584
e 17 594
e 17 604
e 17 607
e 17 611
e 17 639
e 17 676
e 17 679
e 17 684
e 17 702
e 17 709
e 17 710
e 17 723
e 17 725
e 17 766
e 17 786
e 17 794
e 17 811
e 17 816
e 17 831
e 17 832
e 17 844
e 17 845
e 17 866
e 17 871
e 17 886
e 17 909
e 17 911
e 17 917
e 17 942
e 17 949
e 17 952
e 17 960
e 17 964
e 17 969
e 17 974
e 17 975
e 17 980
e 17 993
e 18 258
e 18 275
e 18 283
e 18 288
e 18 289
e 18 314
e 18 320
e 18 335
e 18 337
e 18 342
e 18 343
e 18 357
e 18 365
e 18 369
e 18 382
e 18 400
e 18 402
e 18 420
e 18 443
e 18 449
e 18 450
e 18 452
e 18 495
e 18 499
e 18 508
e 18 511
e 18 513
e 18 517
e 18 525
e 18 528
e 18 544
e 18 545
e 18 547
e 18 558
e 18 561
e 18 562
e 18 563
e 18 566
e 18 570
e 18 573
e 18 582
e 18 583
e 18 585
e 18 595
e 18 600
e 18 603
e 18 606
e 18 608
e 18 615
e 18 620
e 18 622
e 18 654
e 18 662
e 18 694
e 18 697
e 18 720
e 18 741
e 18 749
e 18 750
e 18 754
e 18 757
e 18 764
e 18 769
e 18 773
e 18 782
e 18 784
e 18 785
e 18 786
e 18 800
e 18 802
e 18 808
e 18 812
e 18 813
e 18 832
e 18 836
e 18 839
e 18 840
e 18 850
e 18 851
e 18 861
e 18 868
e 18 876
e 18 880
e 18 881
e 18 899
e 18 900
e 18 911
e 18 912
e 18 925
e 18 931
e 18 942
e 18 943
e 18 944
e 18 947
e 18 972
e 19 254
e 19 281
e 19 285
e 19 291
e 19 304
e 19 316
e 19 317
e 19 328
e 19 337
e 19 356
e 19 362
e 19 375
e 19 399
e 19 431
e 19 436
e 19 448
e 19 454
e 19 466
e 19 470
e 19 473
e 19 475
e 19 476
e 19 510
e 19 519
e 19 530
e 19 534
e 19 535
e 19 545
e 19 552
e 19 554
e 19 572
e 19 579
e 19 581
e 19 601
e 19 610
e 19 629
e 19 631
e 19 634
e 19 638
e 19 649
e 19 663
e 19 675
e 19 685
e 19 686
e 19 700
e 19 733
e 19 742
e 19 750
e 19 776
e 19 787
e 19 810
e 19 814
e 19 822
e 19 823
e 19 832
e 19 833
e 19 835
e 19 836
e 19 840
e 19 848
e 19 853
e 19 854
e 19 886
e 19 909
e 19 916
e 19 919
e 19 945
e 19 949
e 19 951
e 19 957
e 19 962
e 19 967
e 19 987
e 19 996
e 20 258
e 20 269
e 20 277
e 20 280
e 20 295
e 20 300
e 20 302
e 20 325
e 20 329
e 20 338
e 20 361
e 20 378
e 20 391
e 20 395
e 20 404
e 20 412
e 20 418
e 20 419
e 20 429
e 20 436
e 20 445
e 20 450
e 20 456
e 20 485
e 20 493
e 20 494
e 20 507
e 20 519
e 20 525
e 20 529
e 20 531
e 20 537
e 20 540
e 20 543
e 20 546
e 20 547
e 20 551
e 20 552
e 20 571
e 20 576
e 20 594
e 20 595
e 20 605
e 20 616
e 20 623
e 20 628
e 20 640
e 20 650
e 20 655
e 20 704
e 20 706
e 20 716
e 20 724
e 20 733
e 20 734
e 20 741
e 20 745
e 20 750
e 20 761
e 20 780
e 20 781
e 20 792
e 20 793
e 20 812
e 20 824
e 20 853
e 20 854
e 20 871
e 20 875
e 20 891
e 20 894
e 20 913
e 20 916
e 20 927
e 20 935
e 20 936
e 20 951
e 20 967
e 20 970
e 20 977
e 20 982
e 20 985
e 20 997
e 21 261
e 21 269
e 21 270
e 21 289
e 21 296
e 21 309
e 21 310
e 21 322
e 21 324
e 21 327
e 21 351
e 21 367
e 21 368
e 21 380
e 21 385
e 21 387
e 21 395
e 21 413
e 21 414
e 21 425
e 21 433
e 21 443
e 21 453
e 21 454
e 21 476
e 21 487
e 21 491
e 21 498
e 21 514
e 21 533
e 21 546
e 21 548
e 21 554
e 21 560
e 21 583
e 21 585
e 21 652
e 21 660
e 21 669
e 21 673
e 21 678
e 21 684
e 21 697
e 21 717
e 21 727
e 21 734
e 21 762
e 21 769
e 21 772
e 21 779
e 21 782
e 21 788
e 21 796
e 21 799
e 21 801
e 21 823
e 21 842
e 21 860
e 21 867
e 21 873
e 21 904
e 21 905
e 21 909
e 21 910
e 21 927
e 21 940
e 21 948
e 21 958
e 21 961
e 21 967
e 21 993
e 21 994
e 22 261
e 22 286
e 22 299
e 22 306
e 22 308
e 22 324
e 22 326
e 22 334
e 22 335
e 22 342
e 22 366
e 22 379
e 22 384
e 22 387
e 22 410
e 22 423
e 22 428
e 22 439
e 22 451
e 22 453
e 22 466
e 22 467
e 22 471
e 22 480
e 22 483
e 22 487
e 22 493
e 22 494
e 22 496
e 22 499
e 22 500
e 22 510
e 22 521
e 22 525
e 22 537
e 22 558
e 22 562
e 22 577
e 22 582
e 22 587
e 22 603
e 22 632
e 22 639
e 22 642
e 22 644
e 22 645
e 22 648
e 22 650
e 22 659
e 22 667
e 22 687
e 22 694
e 22 703
e 22 745
e 22 749
e 22 752
e 22 756
e 22 798
e 22 809
e 22 817
e 22 874
e 22 875
e 22 876
e 22 884
e 22 892
e 22 905
e 22 928
e 22 933
e 22 948
e 22 960
e 22 962
e 22 964
e 22 972
e 22 983
e 22 986
e 23 253
e 23 269
e 23 292
e 23 306
e 23 313
e 23 314
e 23 337
e 23 342
e 23 356
e 23 359
e 23 361
e 23 362
e 23 372
e 23 373
e 23 394
e 23 402
e 23 414
e 23 418
e 23 435
e 23 442
e 23 445
e 23 468
e 23 470
e 23 476
e 23 477
e 23 482
e 23 507
e 23 528
e 23 533
e 23 539
e 23 556
e 23 558
e 23 584
e 23 616
e 23 632
e 23 633
e 23 634
e 23 639
e 23 697
e 23 721
e 23 754
e 23 776
e 23 783
e 23 823
e 23 832
e 23 851
e 23 878
e 23 889
e 23 896
e 23 916
e 23 923
e 23 926
e 23 956
e 23 957
e 23 972
e 23 984
e 23 994
e 24 255
e 24 258
e 24 264
e 24 266
e 24 278
e 24 282
e 24 288
e 24 291
e 24 295
e 24 297
e 24 303
e 24 305
e 24 317
e 24 322
e 24 326
e 24 352
e 24 357
e 24 366
e 24 370
e 24 419
e 24 424
e 24 438
e 24 445
e 24 462
e 24 472
e 24 476
e 24 480
e 24 489
e 24 494
e 24 522
e 24 526
e 24 534
e 24 582
e 24 583
e 24 587
e 24 594
e 24 596
e 24 599
e 24 611
e 24 624
e 24 629
e 24 633
e 24 676
e 24 686
e 24 695
e 24 707
e 24 729
e 24 745
e 24 754
e 24 755
e 24 756
e 24 764
e 24 777
e 24 789
e 24 808
e 24 814
e 24 832
e 24 836
e 24 843
e 24 850
e 24 852
e 24 854
e 24 858
e 24 863
e 24 868
e 24 879
e 24 884
e 24 914
e 24 945
e 24 965
e 24 969
e 24 978
e 24 986
e 25 258
e 25 265
e 25 268
e 25 284
e 25 298
e 25 300
e 25 335
e 25 347
e 25 355
e 25 360
e 25 371
e 25 372
e 25 383
e 25 390
e 25 393
e 25 397
e 25 399
e 25 404
e 25 419
e 25 421
e 25 433
e 25 437
e 25 441
e 25 453
e 25 481
e 25 483
e 25 496
e 25 503
e 25 508
e 25 510
e 25 524
e 25 527
e 25 532
e 25 554
e 25 566
e 25 567
e 25 618
e 25 632
e 25 646
e 25 659
e 25 660
e 25 662
e 25 664
e 25 669
e 25 671
e 25 690
e 25 704
e 25 707
e 25 709
e 25 719
e 25 720
e 25 736
e 25 746
e 25 772
e 25 778
e 25 786
e 25 795
e 25 806
e 25 842
e 25 857
e 25 871
e 25 873
e 25 876
e 25 894
e 25 896
e 25 902
e 25 903
e 25 923
e 25 940
e 25 944
e 25 945
e 25 951
e 25 953
e 25 957
e 25 960
e 25 981
e 25 993
e 25 994
e 25 996
e 25 998
e 25 1000
e 26 264
e 26 266
e 26 272
e 26 284
e 26 307
e 26 318
e 26 319
e 26 331
e 26 343
e 26 351
e 26 373
e 26 374
e 26 375
e 26 379
e 26 396
e 26 403
e 26 406
e 26 416
e 26 428
e 26 434
e 26 436
e 26 446
e 26 451
e 26 457
e 26 463
e 26 497
e 26 520
e 26 522
e 26 530
e 26 533
e 26 543
e 26 560
e 26 567
e 26 573
e 26 575
e 26 604
e 26 625
e 26 627
e 26 629
e 26 633
e 26 646
e 26 649
e 26 654
e 26 659
e 26 663
e 26 666
e 26 669
e 26 679
e 26 702
e 26 705
e 26 716
e 26 728
e 26 748
e 26 751
e 26 761
e 26 772
e 26 774
e 26 785
e 26 787
e 26 788
e 26 800
e 26 810
e 26 881
e 26 894
e 26 900
e 26 908
e 26 911
e 26 912
e 26 932
e 26 933
e 26 939
e 26 943
e 26 948
e 26 950
e 26 956
e 26 962
e 26 977
e 26 980
e 26 991
e 27 265
e 27 268
e 27 270
e 27 279
e 27 294
e 27 298
e 27 318
e 27 322
e 27 328
e 27 338
e 27 353
e 27 361
e 27 362
e 27 372
e 27 379
e 27 383
e 27 392
e 27 398
e 27 400
e 27 401
e 27 403
e 27 418
e 27 428
e 27 432
e 27 435
e 27 437
e 27 450
e 27 454
e 27 459
e 27 463
e 27 469
e 27 488
e 27 491
e 27 493
e 27 507
e 27 508
e 27 529
e 27 531
e 27 537
e 27 548
e 27 579
e 27 585
e 27 593
e 27 598
e 27 614
e 27 654
e 27 665
e 27 674
e 27 676
e 27 684
e 27 688
e 27 722
e 27 744
e 27 747
e 27 781
e 27 785
e 27 805
e 27 826
e 27 847
e 27 860
e 27 876
e 27 885
e 27 895
e 27 898
e 27 911
e 27 917
e 27 922
e 27 923
e 27 937
e 27 956
e 27 965
e 27 970
e 27 973
e 27 974
e 27 975
e 27 999
e 28 251
e 28 253
e 28 259
e 28 261
e 28 265
e 28 267
e 28 293
e 28 308
e 28 340
e 28 352
e 28 359
e 28 365
e 28 387
e 28 391
e 28 409
e 28 414
e 28 425
e 28 427
e 28 436
e 28 446
e 28 448
e 28 451
e 28 479
e 28 482
e 28 488
e 28 492
e 28 493
e 28 510
e 28 520
e 28 526
e 28 540
e 28 541
e 28 561
e 28 572
e 28 580
e 28 602
e 28 604
e 28 613
e 28 619
e 28 632
e 28 646
e 28 666
e 28 707
e 28 710
e 28 711
e 28 746
e 28 754
e 28 763
e 28 766
e 28 768
e 28 803
e 28 805
e 28 815
e 28 823
e 28 826
e 28 833
e 28 835
e 28 844
e 28 848
e 28 858
e 28 867
e 28 900
e 28 911
e 28 916
e 28 947
e 28 953
e 28 957
e 28 963
e 28 967
e 28 989
e 28 993
e 29 253
e 29 280
e 29 282
e 29 285
e 29 293
e 29 306
e 29 312
e 29 337
e 29 339
e 29 342
e 29 346
e 29 354
e 29 356
e 29 357
e 29 374
e 29 385
e 29 391
e 29 401
e 29 411
e 29 421
e 29 430
e 29 462
e 29 474
e 29 489
e 29 490
e 29 498
e 29 502
e 29 528
e 29 541
e 29 559
e 29 560
e 29 571
e 29 575
e 29 577
e 29 616
e 29 630
e 29 642
e 29 646
e 29 647
e 29 653
e 29 654
e 29 663
e 29 686
e 29 702
e 29 706
e 29 712
e 29 717
e 29 726
e 29 728
e 29 743
e 29 745
e 29 762
e 29 765
e 29 766
e 29 776
e 29 777
e 29 781
e 29 785
e 29 789
e 29 793
e 29 801
e 29 805
e 29 812
e 29 822
e 29 827
e 29 830
e 29 869
e 29 872
e 29 881
e 29 911
e 29 915
e 29 925
e 29 927
e 29 945
e 29 957
e 29 959
e 29 960
e 29 962
e 29 987
e 29 991
e 30 256
e 30 257
e 30 259
e 30 277
e 30 279
e 30 294
e 30 300
e 30 305
e 30 311
e 30 346
e 30 348
e 30 363
e 30 365
e 30 378
e 30 383
e 30 387
e 30 388
e 30 391
e 30 400
e 30 402
e 30 406
e 30 432
e 30 487
e 30 493
e 30 507
e 30 510
e 30 515
e 30 531
e 30 537
e 30 539
e 30 546
e 30 551
e 30 558
e 30 584
e 30 587
e 30 605
e 30 622
e 30 641
e 30 653
e 30 662
e 30 683
e 30 688
e 30 696
e 30 699
e 30 702
e 30 719
e 30 740
e 30 748
e 30 749
e 30 763
e 30 777
e 30 778
e 30 789
e 30 798
e 30 806
e 30 818
e 30 858
e 30 884
e 30 894
e 30 906
e 30 912
e 30 945
e 30 950
e 30 956
e 30 958
e 30 963
e 30 965
e 30 979
e 30 984
e 30 992
e 30 996
e 30 997
e 31 257
e 31 265
e 31 289
e 31 293
e 31 294
e 31 303
e 31 320
e 31 329
e 31 344
e 31 349
e 31 376
e 31 384
e 31 389
e 31 391
e 31 429
e 31 430
e 31 442
e 31 449
e 31 459
e 31 467
e 31 469
e 31 474
e 31 488
e 31 498
e 31 511
e 31 523
e 31 527
e 31 549
e 31 570
e 31 575
e 31 586
e 31 598
e 31 619
e 31 634
e 31 665
e 31 680
e 31 681
e 31 689
e 31 694
e 31 712
e 31 730
e 31 736
e 31 743
e 31 755
e 31 757
e 31 760
e 31 774
e 31 778
e 31 784
e 31 793
e 31 796
e 31 801
e 31 816
e 31 824
e 31 885
e 31 903
e 31 908
e 31 920
e 31 921
e 31 932
e 31 939
e 31 963
e 31 968
e 32 259
e 32 264
e 32 266
e 32 269
e 32 274
e 32 302
e 32 312
e 32 315
e 32 325
e 32 342
e 32 356
e 32 364
e 32 367
e 32 394
e 32 400
e 32 427
e 32 436
e 32 441
e 32 457
e 32 467
e 32 468
e 32 470
e 32 474
e 32 475
e 32 477
e 32 482
e 32 483
e 32 492
e 32 500
e 32 505
e 32 506
e 32 524
e 32 526
e 32 527
e 32 537
e 32 545
e 32 557
e 32 565
e 32 569
e 32 577
e 32 580
e 32 583
e 32 596
e 32 601
e 32 609
e 32 615
e 32 629
e 32 631
e 32 632
e 32 642
e 32 646
e 32 648
e 32 677
e 32 680
e 32 693
e 32 696
e 32 709
e 32 711
e 32 712
e 32 714
e 32 722
e 32 724
e 32 790
e 32 798
e 32 815
e 32 824
e 32 825
e 32 828
e 32 829
e 32 836
e 32 838
e 32 845
e 32 859
e 32 863
e 32 867
e 32 869
e 32 899
e 32 904
e 32 920
e 32 931
e 32 938
e 32 941
e 32 945
e 32 946
e 32 948
e 32 952
e 32 963
e 32 969
e 32 972
e 32 980
e 33 259
e 33 272
e 33 277
e 33 284
e 33 298
e 33 305
e 33 316
e 33 340
e 33 349
e 33 357
e 33 362
e 33 377
e 33 382
e 33 387
e 33 414
e 33 434
e 33 456
e 33 474
e 33 486
e 33 503
e 33 504
e 33 509
e 33 530
e 33 540
e 33 561
e 33 570
e 33 575
e 33 585
e 33 605
e 33 608
e 33 612
e 33 613
e 33 616
e 33 642
e 33 651
e 33 655
e 33 675
e 33 695
e 33 711
e 33 712
e 33 736
e 33 738
e 33 763
e 33 795
e 33 809
e 33 818
e 33 835
e 33 836
e 33 847
e 33 850
e 33 893
e 33 906
e 33 934
e 33 944
e 33 951
e 33 957
e 33 961
e 33 964
e 33 965
e 33 972
e 33 978
e 33 995
e 33 1000
e 34 252
e 34 256
e 34 259
e 34 269
e 34 281
e 34 301
e 34 331
e 34 354
e 34 388
e 34 390
e 34 395
e 34 398
e 34 401
e 34 405
e 34 414
e 34 425
e 34 428
e 34 433
e 34 455
e 34 487
e 34 531
e 34 534
e 34 540
e 34 617
e 34 619
e 34 632
e 34 634
e 34 639
e 34 645
e 34 648
e 34 674
e 34 694
e 34 711
e 34 714
e 34 724
e 34 733
e 34 743
e 34 757
e 34 783
e 34 812
e 34 813
e 34 850
e 34 857
e 34 860
e 34 877
e 34 879
e 34 881
e 34 886
e 34 888
e 34 900
e 34 929
e 34 934
e 34 952
e 34 960
e 34 976
e 34 979
e 34 985
e 34 987
e 35 261
e 35 267
e 35 289
e 35 292
e 35 293
e 35 298
e 35 309
e 35 325
e 35 329
e 35 343
e 35 353
e 35 355
e 35 366
e 35 380
e 35 399
e 35 411
e 35 429
e 35 437
e 35 445
e 35 451
e 35 452
e 35 459
e 35 463
e 35 483
e 35 491
e 35 498
e 35 501
e 35 505
e 35 521
e 35 541
e 35 576
e 35 586
e 35 600
e 35 612
e 35 650
e 35 664
e 35 675
e 35 678
e 35 682
e 35 692
e 35 694
e 35 695
e 35 708
e 35 718
e 35 740
e 35 745
e 35 749
e 35 759
e 35 777
e 35 787
e 35 789
e 35 794
e 35 795
e 35 804
e 35 824
e 35 828
e 35 854
e 35 855
e 35 880
e 35 886
e 35 888
e 35 903
e 35 913
e 35 914
e 35 921
e 35 934
e 35 937
e 35 944
e 35 962
e 35 966
e 35 992
e 35 997
e 36 259
e 36 284
e 36 297
e 36 301
e 36 336
e 36 359
e 36 368
e 36 375
e 36 387
e 36 394
e 36 399
e 36 402
e 36 416
e 36 432
e 36 436
e 36 438
e 36 450
e 36 455
e 36 469
e 36 474
e 36 488
e 36 489
e 36 494
e 36 503
e 36 509
e 36 516
e 36 519
e 36 522
e 36 523
e 36 529
e 36 549
e 36 554
e 36 564
e 36 568
e 36 571
e 36 587
e 36 594
e 36 600
e 36 601
e 36 612
e 36 628
e 36 653
e 36 655
e 36 664
e 36 694
e 36 696
e 36 698
e 36 702
e 36 703
e 36 711
e 36 713
e 36 721
e 36 723
e 36 733
e 36 746
e 36 750
e 36 768
e 36 773
e 36 797
e 36 802
e 36 805
e 36 808
e 36 820
e 36 847
e 36 879
e 36 894
e 36 899
e 36 922
e 36 924
e 36 927
e 36 942
e 36 955
e 36 962
e 36 964
e 36 965
e 36 972
e 36 982
e 36 989
e 36 997
e 37 257
e 37 260
e 37 263
e 37 270
e 37 282
e 37 284
e 37 291
e 37 292
e 37 312
e 37 335
e 37 348
e 37 349
e 37 361
e 37 362
e 37 365
e 37 366
e 37 384
e 37 394
e 37 399
e 37 412
e 37 424
e 37 425
e 37 443
e 37 449
e 37 462
e 37 472
e 37 479
e 37 484
e 37 486
e 37 521
e 37 523
e 37 527
e 37 529
e 37 537
e 37 551
e 37 581
e 37 610
e 37 631
e 37 643
e 37 678
e 37 696
e 37 701
e 37 703
e 37 710
e 37 713
e 37 730
e 37 740
e 37 752
e 37 762
e 37 783
e 37 788
e 37 794
e 37 795
e 37 797
e 37 810
e 37 811
e 37 812
e 37 816
e 37 825
e 37 837
e 37 840
e 37 841
e 37 862
e 37 865
e 37 868
e 37 893
e 37 917
e 37 940
e 37 954
e 37 963
e 37 964
e 37 969
e 37 997
e 37 998
e 38 262
e 38 270
e 38 277
e 38 288
e 38 318
e 38 322
e 38 326
e 38 330
e 38 339
e 38 347
e 38 361
e 38 363
e 38 374
e 38 386
e 38 396
e 38 404
e 38 414
e 38 422
e 38 426
e 38 434
e 38 440
e 38 452
e 38 477
e 38 487
e 38 489
e 38 490
e 38 491
e 38 493
e 38 496
e 38 505
e 38 515
e 38 518
e 38 522
e 38 542
e 38 552
e 38 569
e 38 571
e 38 595
e 38 602
e 38 605
e 38 613
e 38 615
e 38 622
e 38 630
e 38 637
e 38 640
e 38 651
e 38 654
e 38 656
e 38 658
e 38 659
e 38 665
e 38 681
e 38 690
e 38 691
e 38 708
e 38 710
e 38 715
e 38 726
e 38 729
e 38 731
e 38 749
e 38 754
e 38 772
e 38 776
e 38 801
e 38 822
e 38 824
e 38 830
e 38 877
e 38 880
e 38 883
e 38 894
e 38 913
e 38 930
e 38 940
e 38 959
e 38 962
e 38 971
e 38 977
e 38 985
e 38 986
e 38 992
e 38 999
e 39 251
e 39 276
e 39 279
e 39 287
e 39 296
e 39 311
e 39 315
e 39 333
e 39 336
e 39 341
e 39 349
e 39 351
e 39 362
e 39 363
e 39 387
e 39 410
e 39 411
e 39 435
e 39 441
e 39 458
e 39 464
e 39 480
e 39 500
e 39 504
e 39 513
e 39 517
e 39 530
e 39 536
e 39 555
e 39 557
e 39 570
e 39 585
e 39 590
e 39 602
e 39 605
e 39 639
e 39 649
e 39 651
e 39 652
e 39 657
e 39 666
e 39 669
e 39 677
e 39 687
e 39 689
e 39 712
e 39 720
e 39 727
e 39 755
e 39 757
e 39 758
e 39 779
e 39 791
e 39 792
e 39 806
e 39 813
e 39 841
e 39 847
e 39 853
e 39 854
e 39 862
e 39 869
e 39 883
e 39 913
e 39 918
e 39 919
e 39 928
e 39 942
e 39 943
e 39 971
e 39 981
e 39 982
e 40 254
e 40 257
e 40 267
e 40 268
e 40 274
e 40 278
e 40 285
e 40 290
e 40 315
e 40 327
e 40 328
e 40 331
e 40 337
e 40 342
e 40 349
e 40 362
e 40 365
e 40 375
e 40 379
e 40 383
e 40 401
e 40 407
e 40 409
e 40 414
e 40 421
e 40 442
e 40 443
e 40 462
e 40 464
e 40 469
e 40 483
e 40 493
e 40 516
e 40 538
e 40 547
e 40 560
e 40 562
e 40 574
e 40 575
e 40 601
e 40 606
e 40 623
e 40 625
e 40 626
e 40 636
e 40 641
e 40 670
e 40 675
e 40 697
e 40 705
e 40 739
e 40 741
e 40 743
e 40 753
e 40 794
e 40 805
e 40 825
e 40 853
e 40 867
e 40 869
e 40 874
e 40 885
e 40 898
e 40 899
e 40 901
e 40 919
e 40 925
e 40 927
e 40 932
e 40 939
e 40 951
e 40 977
e 40 982
e 40 988
e 41 251
e 41 253
e 41 254
e 41 271
e 41 281
e 41 292
e 41 310
e 41 317
e 41 326
e 41 329
e 41 330
e 41 337
e 41 342
e 41 349
e 41 350
e 41 385
e 41 388
e 41 406
e 41 416
e 41 429
e 41 450
e 41 455
e 41 462
e 41 468
e 41 492
e 41 510
e 41 511
e 41 517
e 41 523
e 41 527
e 41 530
e 41 533
e 41 543
e 41 546
e 41 558
e 41 562
e 41 578
e 41 592
e 41 599
e 41 601
e 41 610
e 41 636
e 41 640
e 41 647
e 41 648
e 41 657
e 41 660
e 41 669
e 41 688
e 41 692
e 41 697
e 41 705
e 41 719
e 41 728
e 41 748
e 41 749
e 41 762
e 41 776
e 41 789
e 41 797
e 41 826
e 41 850
e 41 857
e 41 874
e 41 875
e 41 877
e 41 880
e 41 889
e 41 902
e 41 903
e 41 914
e 41 917
e 41 935
e 41 936
e 41 948
e 41 960
e 41 962
e 41 965
e 41 974
e 41 979
e 41 987
e 41 992
e 42 259
e 42 260
e 42 261
e 42 278
e 42 280
e 42 293
e 42 294
e 42 311
e 42 321
e 42 323
e 42 344
e 42 348
e 42 361
e 42 362
e 42 368
e 42 406
e 42 409
e 42 410
e 42 424
e 42 440
e 42 445
e 42 452
e 42 473
e 42 502
e 42 509
e 42 523
e 42 554
e 42 557
e 42 584
e 42 601
e 42 621
e 42 644
e 42 646
e 42 659
e 42 668
e 42 695
e 42 712
e 42 720
e 42 723
e 42 745
e 42 748
e 42 752
e 42 756
e 42 758
e 42 764
e 42 778
e 42 782
e 42 791
e 42 792
e 42 807
e 42 813
e 42 814
e 42 821
e 42 828
e 42 839
e 42 855
e 42 862
e 42 871
e 42 872
e 42 883
e 42 890
e 42 893
e 42 897
e 42 903
e 42 911
e 42 915
e 42 921
e 42 926
e 42 935
e 42 938
e 42 939
e 42 946
e 42 951
e 42 955
e 42 960
e 42 961
e 42 970
e 42 987
e 42 991
e 42 997
e 42 1000
e 43 251
e 43 256
e 43 264
e 43 267
e 43 272
e 43 277
e 43 281
e 43 316
e 43 323
e 43 328
e 43 334
e 43 335
e 43 338
e 43 344
e 43 346
e 43 354
e 43 357
e 43 370
e 43 372
e 43 375
e 43 399
e 43 404
e 43 439
e 43 440
e 43 444
e 43 457
e 43 470
e 43 472
e 43 492
e 43 496
e 43 499
e 43 508
e 43 519
e 43 543
e 43 568
e 43 571
e 43 597
e 43 622
e 43 626
e 43 634
e 43 644
e 43 646
e 43 651
e 43 668
e 43 677
e 43 679
e 43 688
e 43 690
e 43 691
e 43 708
e 43 741
e 43 756
e 43 772
e 43 787
e 43 788
e 43 789
e 43 804
e 43 805
e 43 829
e 43 830
e 43 832
e 43 868
e 43 871
e 43 875
e 43 876
e 43 877
e 43 881
e 43 903
e 43 914
e 43 942
e 43 947
e 43 962
e 43 966
e 43 971
e 43 981
e 43 984
e 43 985
e 44 255
e 44 267
e 44 271
e 44 275
e 44 301
e 44 309
e 44 312
e 44 313
e 44 343
e 44 353
e 44 355
e 44 358
e 44 359
e 44 364
e 44 385
e 44 400
e 44 427
e 44 437
e 44 470
e 44 471
e 44 472
e 44 475
e 44 478
e 44 479
e 44 500
e 44 528
e 44 533
e 44 575
e 44 579
e 44 588
e 44 593
e 44 618
e 44 621
e 44 630
e 44 652
e 44 680
e 44 707
e 44 711
e 44 721
e 44 722
e 44 733
e 44 743
e 44 757
e 44 769
e 44 781
e 44 785
e 44 803
e 44 807
e 44 808
e 44 824
e 44 829
e 44 844
e 44 853
e 44 859
e 44 860
e 44 880
e 44 883
e 44 897
e 44 902
e 44 906
e 44 918
e 44 928
e 44 938
e 44 941
e 44 948
e 44 949
e 44 967
e 44 968
e 44 986
e 44 987
e 45 256
e 45 260
e 45 271
e 45 272
e 45 274
e 45 275
e 45 293
e 45 296
e 45 299
e 45 310
e 45 315
e 45 316
e 45 323
e 45 325
e 45 335
e 45 347
e 45 350
e 45 381
e 45 392
e 45 414
e 45 415
e 45 427
e 45 434
e 45 446
e 45 448
e 45 451
e 45 453
e 45 485
e 45 486
e 45 510
e 45 524
e 45 525
e 45 528
e 45 550
e 45 553
e 45 555
e 45 561
e 45 583
e 45 584
e 45 588
e 45 595
e 45 598
e 45 600
e 45 608
e 45 624
e 45 650
e 45 653
e 45 657
e 45 663
e 45 690
e 45 694
e 45 698
e 45 702
e 45 716
e 45 724
e 45 735
e 45 740
e 45 761
e 45 767
e 45 770
e 45 773
e 45 782
e 45 784
e 45 798
e 45 802
e 45 818
e 45 822
e 45 832
e 45 834
e 45 838
e 45 840
e 45 855
e 45 866
e 45 877
e 45 878
e 45 883
e 45 899
e 45 933
e 45 949
e 45 950
e 45 954
e 45 961
e 45 964
e 45 967
e 45 986
e 45 990
e 45 995
e 46 267
e 46 285
e 46 303
e 46 323
e 46 327
e 46 331
e 46 342
e 46 357
e 46 359
e 46 360
e 46 371
e 46 387
e 46 402
e 46 411
e 46 417
e 46 422
e 46 434
e 46 435
e 46 439
e 46 446
e 46 462
e 46 484
e 46 492
e 46 504
e 46 507
e 46 519
e 46 564
e 46 574
e 46 578
e 46 580
e 46 581
e 46 582
e 46 591
e 46 602
e 46 612
e 46 613
e 46 620
e 46 622
e 46 628
e 46 641
e 46 643
e 46 651
e 46 655
e 46 667
e 46 675
e 46 680
e 46 694
e 46 707
e 46 720
e 46 745
e 46 756
e 46 760
e 46 773
e 46 786
e 46 793
e 46 806
e 46 826
e 46 829
e 46 830
e 46 832
e 46 846
e 46 849
e 46 864
e 46 867
e 46 878
e 46 884
e 46 889
e 46 892
e 46 899
e 46 907
e 46 909
e 46 930
e 46 935
e 46 939
e 46 942
e 46 944
e 46 953
e 46 962
e 46 967
e 46 973
e 46 974
e 46 986
e 47 269
e 47 277
e 47 288
e 47 303
e 47 304
e 47 314
e 47 325
e 47 328
e 47 330
e 47 332
e 47 338
e 47 345
e 47 381
e 47 383
e 47 384
e 47 394
e 47 401
e 47 414
e 47 426
e 47 433
e 47 438
e 47 445
e 47 457
e 47 473
e 47 490
e 47 512
e 47 522
e 47 525
e 47 527
e 47 544
e 47 568
e 47 619
e 47 629
e 47 630
e 47 634
e 47 644
e 47 652
e 47 656
e 47 658
e 47 666
e 47 676
e 47 677
e 47 678
e 47 707
e 47 710
e 47 722
e 47 736
e 47 746
e 47 771
e 47 799
e 47 802
e 47 806
e 47 807
e 47 819
e 47 824
e 47 838
e 47 841
e 47 854
e 47 858
e 47 862
e 47 864
e 47 879
e 47 884
e 47 898
e 47 899
e 47 912
e 47 921
e 47 926
e 47 931
e 47 937
e 47 942
e 47 943
e 47 948
e 47 955
e 47 973
e 47 979
e 47 991
e 47 994
e 47 997
e 48 254
e 48 281
e 48 286
e 48 292
e 48 296
e 48 303
e 48 309
e 48 310
e 48 315
e 48 318
e 48 330
e 48 359
e 48 361
e 48 375
e 48 380
e 48 386
e 48 423
e 48 435
e 48 443
e 48 450
e 48 452
e 48 456
e 48 467
e 48 468
e 48 470
e 48 475
e 48 478
e 48 485
e 48 493
e 48 494
e 48 501
e 48 509
e 48 522
e 48 528
e 48 534
e 48 536
e 48 542
e 48 544
e 48 559
e 48 573
e 48 575
e 48 589
e 48 641
e 48 652
e 48 675
e 48 681
e 48 685
e 48 712
e 48 731
e 48 734
e 48 750
e 48 753
e 48 754
e 48 756
e 48 762
e 48 768
e 48 798
e 48 802
e 48 820
e 48 832
e 48 875
e 48 885
e 48 892
e 48 926
e 48 930
e 48 938
e 48 947
e 48 949
e 48 965
e 48 967
e 48 980
e 48 985
e 48 986
e 49 252
e 49 255
e 49 259
e 49 260
e 49 262
e 49 272
e 49 286
e 49 291
e 49 299
e 49 300
e 49 301
e 49 302
e 49 307
e 49 321
e 49 326
e 49 328
e 49 334
e 49 350
e 49 353
e 49 355
e 49 356
e 49 358
e 49 360
e 49 365
e 49 366
e 49 397
e 49 400
e 49 416
e 49 428
e 49 433
e 49 442
e 49 446
e 49 450
e 49 451
e 49 463
e 49 469
e 49 472
e 49 482
e 49 487
e 49 493
e 49 499
e 49 508
e 49 530
e 49 567
e 49 568
e 49 570
e 49 578
e 49 580
e 49 583
e 49 589
e 49 615
e 49 636
e 49 645
e 49 649
e 49 650
e 49 652
e 49 676
e 49 687
e 49 703
e 49 716
e 49 720
e 49 728
e 49 736
e 49 744
e 49 747
e 49 748
e 49 750
e 49 787
e 49 793
e 49 799
e 49 807
e 49 819
e 49 826
e 49 829
e 49 836
e 49 865
e 49 872
e 49 874
e 49 894
e 49 913
e 49 914
e 49 923
e 49 925
e 49 934
e 49 936
e 49 943
e 49 948
e 49 953
e 49 957
e 49 987
e 49 996
e 50 253
e 50 261
e 50 271
e 50 278
e 50 301
e 50 302
e 50 314
e 50 324
e 50 343
e 50 347
e 50 351
e 50 358
e 50 360
e 50 372
e 50 389
e 50 391
e 50 398
e 50 399
e 50 410
e 50 418
e 50 423
e 50 427
e 50 433
e 50 440
e 50 451
e 50 456
e 50 474
e 50 483
e 50 494
e 50 502
e 50 506
e 50 512
e 50 517
e 50 535
e 50 538
e 50 541
e 50 546
e 50 553
e 50 558
e 50 564
e 50 572
e 50 575
e 50 576
e 50 582
e 50 601
e 50 622
e 50 624
e 50 675
e 50 723
e 50 725
e 50 727
e 50 741
e 50 745
e 50 747
e 50 763
e 50 784
e 50 785
e 50 797
e 50 805
e 50 808
e 50 835
e 50 844
e 50 853
e 50 882
e 50 885
e 50 901
e 50 902
e 50 906
e 50 907
e 50 925
e 50 929
e 50 943
e 50 945
e 50 962
e 50 963
e 50 970
e 50 978
e 50 980
e 50 983
e 50 986
e 50 999
e 51 255
e 51 257
e 51 265
e 51 274
e 51 294
e 51 300
e 51 304
e 51 309
e 51 312
e 51 330
e 51 333
e 51 334
e 51 341
e 51 380
e 51 382
e 51 391
e 51 394
e 51 395
e 51 400
e 51 410
e 51 416
e 51 427
e 51 429
e 51 437
e 51 439
e 51 447
e 51 465
e 51 484
e 51 493
e 51 528
e 51 540
e 51 541
e 51 542
e 51 546
e 51 550
e 51 555
e 51 567
e 51 577
e 51 578
e 51 587
e 51 593
e 51 609
e 51 622
e 51 649
e 51 680
e 51 685
e 51 686
e 51 689
e 51 691
e 51 695
e 51 717
e 51 726
e 51 762
e 51 765
e 51 766
e 51 774
e 51 778
e 51 783
e 51 784
e 51 788
e 51 796
e 51 807
e 51 808
e 51 816
e 51 823
e 51 837
e 51 850
e 51 854
e 51 855
e 51 860
e 51 872
e 51 900
e 51 904
e 51 915
e 51 917
e 51 924
e 51 938
e 51 952
e 51 953
e 51 958
e 51 965
e 51 986
e 51 991
e 51 996
e 52 252
e 52 257
e 52 267
e 52 280
e 52 301
e 52 308
e 52 312
e 52 327
e 52 347
e 52 352
e 52 361
e 52 364
e 52 372
e 52 389
e 52 404
e 52 411
e 52 429
e 52 438
e 52 445
e 52 455
e 52 469
e 52 474
e 52 485
e 52 487
e 52 490
e 52 533
e 52 534
e 52 548
e 52 551
e 52 581
e 52 591
e 52 597
e 52 598
e 52 599
e 52 601
e 52 612
e 52 621
e 52 627
e 52 635
e 52 648
e 52 663
e 52 666
e 52 676
e 52 678
e 52 679
e 52 707
e 52 715
e 52 718
e 52 734
e 52 754
e 52 769
e 52 777
e 52 779
e 52 800
e 52 813
e 52 815
e 52 829
e 52 848
e 52 849
e 52 856
e 52 861
e 52 911
e 52 921
e 52 926
e 52 929
e 52 934
e 52 949
e 52 962
e 52 966
e 52 991
e 53 253
e 53 264
e 53 265
e 53 281
e 53 294
e 53 310
e 53 326
e 53 331
e 53 336
e 53 364
e 53 365
e 53 367
e 53 381
e 53 409
e 53 427
e 53 432
e 53 447
e 53 448
e 53 453
e 53 459
e 53 462
e 53 479
e 53 498
e 53 507
e 53 512
e 53 519
e 53 522
e 53 526
e 53 540
e 53 548
e 53 553
e 53 572
e 53 601
e 53 647
e 53 665
e 53 667
e 53 679
e 53 730
e 53 771
e 53 782
e 53 801
e 53 807
e 53 813
e 53 830
e 53 832
e 53 836
e 53 851
e 53 864
e 53 873
e 53 890
e 53 928
e 53 929
e 53 932
e 53 941
e 53 942
e 53 944
e 53 946
e 53 949
e 53 968
e 53 974
e 53 984
e 53 989
e 53 991
e 54 254
e 54 262
e 54 269
e 54 273
e 54 284
e 54 289
e 54 294
e 54 300
e 54 307
e 54 310
e 54 318
e 54 347
e 54 351
e 54 354
e 54 364
e 54 374
e 54 376
e 54 378
e 54 413
e 54 418
e 54 431
e 54 442
e 54 448
e 54 467
e 54 471
e 54 475
e 54 487
e 54 514
e 54 517
e 54 526
e 54 530
e 54 547
e 54 553
e 54 559
e 54 560
e 54 568
e 54 573
e 54 601
e 54 611
e 54 628
e 54 631
e 54 636
e 54 646
e 54 649
e 54 650
e 54 670
e 54 684
e 54 694
e 54 696
e 54 702
e 54 705
e 54 706
e 54 711
e 54 719
e 54 754
e 54 772
e 54 777
e 54 786
e 54 792
e 54 800
e 54 807
e 54 812
e 54 826
e 54 847
e 54 855
e 54 859
e 54 882
e 54 906
e 54 916
e 54 928
e 54 941
e 54 948
e 54 968
e 55 266
e 55 279
e 55 281
e 55 282
e 55 284
e 55 286
e 55 318
e 55 331
e 55 341
e 55 349
e 55 352
e 55 399
e 55 407
e 55 408
e 55 410
e 55 422
e 55 423
e 55 430
e 55 435
e 55 451
e 55 460
e 55 465
e 55 485
e 55 488
e 55 509
e 55 511
e 55 517
e 55 532
e 55 536
e 55 551
e 55 574
e 55 576
e 55 578
e 55 584
e 55 614
e 55 618
e 55 634
e 55 636
e 55 650
e 55 675
e 55 677
e 55 684
e 55 689
e 55 697
e 55 700
e 55 702
e 55 713
e 55 714
e 55 726
e 55 733
e 55 735
e 55 750
e 55 762
e 55 773
e 55 776
e 55 785
e 55 787
e 55 807
e 55 816
e 55 820
e 55 849
e 55 852
e 55 868
e 55 886
e 55 891
e 55 893
e 55 896
e 55 902
e 55 939
e 55 944
e 55 977
e 55 982
e 55 984
e 55 994
e 55 1000
e 56 253
e 56 263
e 56 270
e 56 281
e 56 286
e 56 295
e 56 302
e 56 309
e 56 316
e 56 325
e 56 341
e 56 358
e 56 375
e 56 380
e 56 383
e 56 405
e 56 410
e 56 429
e 56 434
e 56 437
e 56 460
e 56 471
e 56 473
e 56 496
e 56 503
e 56 514
e 56 527
e 56 571
e 56 580
e 56 607
e 56 608
e 56 617
e 56 624
e 56 648
e 56 657
e 56 666
e 56 675
e 56 707
e 56 712
e 56 729
e 56 732
e 56 737
e 56 753
e 56 755
e 56 760
e 56 767
e 56 788
e 56 837
e 56 838
e 56 854
e 56 859
e 56 862
e 56 884
e 56 897
e 56 914
e 56 919
e 56 931
e 56 961
e 56 962
e 56 987
e 56 988
e 56 992
e 57 268
e 57 280
e 57 287
e 57 305
e 57 316
e 57 317
e 57 321
e 57 326
e 57 328
e 57 329
e 57 337
e 57 342
e 57 350
e 57 361
e 57 395
e 57 398
e 57 407
e 57 413
e 57 422
e 57 439
e 57 446
e 57 447
e 57 450
e 57 473
e 57 485
e 57 492
e 57 499
e 57 500
e 57 501
e 57 503
e 57 505
e 57 521
e 57 528
e 57 534
e 57 539
e 57 543
e 57 566
e 57 567
e 57 582
e 57 592
e 57 605
e 57 610
e 57 626
e 57 665
e 57 679
e 57 691
e 57 719
e 57 726
e 57 736
e 57 748
e 57 753
e 57 756
e 57 758
e 57 759
e 57 768
e 57 774
e 57 792
e 57 795
e 57 806
e 57 826
e 57 829
e 57 845
e 57 846
e 57 859
e 57 869
e 57 893
e 57 894
e 57 897
e 57 899
e 57 905
e 57 908
e 57 922
e 57 924
e 57 927
e 57 949
e 57 967
e 57 973
e 57 976
e 57 983
e 57 993
e 58 252
e 58 258
e 58 266
e 58 268
e 58 284
e 58 305
e 58 317
e 58 322
e 58 353
e 58 354
e 58 361
e 58 370
e 58 381
e 58 425
e 58 430
e 58 432
e 58 438
e 58 446
e 58 451
e 58 465
e 58 467
e 58 486
e 58 488
e 58 495
e 58 501
e 58 526
e 58 537
e 58 542
e 58 549
e 58 569
e 58 574
e 58 583
e 58 610
e 58 627
e 58 633
e 58 634
e 58 645
e 58 659
e 58 669
e 58 673
e 58 675
e 58 678
e 58 680
e 58 685
e 58 748
e 58 752
e 58 768
e 58 773
e 58 788
e 58 803
e 58 810
e 58 820
e 58 824
e 58 834
e 58 849
e 58 855
e 58 858
e 58 859
e 58 867
e 58 885
e 58 888
e 58 913
e 58 914
e 58 919
e 58 926
e 58 932
e 58 937
e 58 940
e 58 948
e 58 978
e 58 983
e 59 271
e 59 295
e 59 301
e 59 303
e 59 348
e 59 377
e 59 378
e 59 383
e 59 415
e 59 420
e 59 427
e 59 443
e 59 452
e 59 496
e 59 499
e 59 504
e 59 508
e 59 521
e 59 555
e 59 556
e 59 592
e 59 609
e 59 629
e 59 642
e 59 644
e 59 660
e 59 664
e 59 688
e 59 709
e 59 720
e 59 742
e 59 746
e 59 761
e 59 764
e 59 768
e 59 769
e 59 780
e 59 789
e 59 791
e 59 796
e 59 799
e 59 815
e 59 827
e 59 834
e 59 848
e 59 855
e 59 858
e 59 876
e 59 920
e 59 927
e 59 950
e 59 961
e 59 972
e 59 985
e 60 265
e 60 276
e 60 281
e 60 291
e 60 293
e 60 314
e 60 319
e 60 351
e 60 354
e 60 359
e 60 367
e 60 369
e 60 387
e 60 394
e 60 397
e 60 434
e 60 452
e 60 465
e 60 468
e 60 476
e 60 478
e 60 486
e 60 491
e 60 495
e 60 515
e 60 519
e 60 553
e 60 560
e 60 568
e 60 581
e 60 585
e 60 590
e 60 594
e 60 599
e 60 610
e 60 617
e 60 632
e 60 635
e 60 638
e 60 682
e 60 683
e 60 693
e 60 696
e 60 702
e 60 710
e 60 730
e 60 764
e 60 774
e 60 780
e 60 785
e 60 787
e 60 804
e 60 820
e 60 839
e 60 854
e 60 855
e 60 856
e 60 865
e 60 874
e 60 888
e 60 907
e 60 914
e 60 920
e 60 938
e 60 950
e 60 951
e 60 954
e 60 962
e 60 965
e 60 976
e 60 992
e 61 251
e 61 261
e 61 263
e 61 271
e 61 294
e 61 301
e 61 322
e 61 329
e 61 336
e 61 341
e 61 369
e 61 374
e 61 375
e 61 376
e 61 394
e 61 413
e 61 441
e 61 449
e 61 469
e 61 478
e 61 493
e 61 500
e 61 510
e 61 519
e 61 520
e 61 528
e 61 530
e 61 533
e 61 550
e 61 551
e 61 553
e 61 566
e 61 580
e 61 586
e 61 595
e 61 606
e 61 610
e 61 626
e 61 634
e 61 635
e 61 654
e 61 671
e 61 689
e 61 693
e 61 702
e 61 710
e 61 717
e 61 721
e 61 726
e 61 746
e 61 748
e 61 764
e 61 768
e 61 784
e 61 789
e 61 842
e 61 848
e 61 878
e 61 879
e 61 883
e 61 885
e 61 890
e 61 912
e 61 933
e 61 934
e 61 947
e 61 976
e 61 985
e 61 988
e 61 998
e 61 1000
e 62 262
e 62 264
e 62 270
e 62 271
e 62 273
e 62 281
e 62 285
e 62 286
e 62 291
e 62 314
e 62 315
e 62 317
e 62 326
e 62 335
e 62 340
e 62 350
e 62 358
e 62 362
e 62 375
e 62 396
e 62 403
e 62 409
e 62 410
e 62 432
e 62 438
e 62 444
e 62 464
e 62 465
e 62 466
e 62 471
e 62 473
e 62 491
e 62 497
e 62 505
e 62 522
e 62 534
e 62 536
e 62 543
e 62 557
e 62 573
e 62 586
e 62 596
e 62 604
e 62 605
e 62 608
e 62 622
e 62 625
e 62 634
e 62 635
e 62 663
e 62 688
e 62 697
e 62 700
e 62 703
e 62 719
e 62 746
e 62 749
e 62 759
e 62 777
e 62 781
e 62 796
e 62 805
e 62 812
e 62 831
e 62 863
e 62 864
e 62 874
e 62 875
e 62 877
e 62 882
e 62 889
e 62 891
e 62 893
e 62 894
e 62 900
e 62 902
e 62 905
e 62 907
e 62 917
e 62 920
e 62 945
e 62 950
e 62 955
e 62 956
e 62 974
e 62 980
e 63 251
e 63 261
e 63 270
e 63 282
e 63 290
e 63 302
e 63 324
e 63 332
e 63 336
e 63 338
e 63 339
e 63 345
e 63 347
e 63 350
e 63 363
e 63 373
e 63 387
e 63 390
e 63 391
e 63 400
e 63 410
e 63 412
e 63 428
e 63 485
e 63 492
e 63 502
e 63 510
e 63 515
e 63 519
e 63 556
e 63 570
e 63 587
e 63 619
e 63 628
e 63 630
e 63 651
e 63 652
e 63 660
e 63 676
e 63 680
e 63 695
e 63 736
e 63 739
e 63 741
e 63 745
e 63 746
e 63 771
e 63 772
e 63 774
e 63 795
e 63 803
e 63 810
e 63 822
e 63 834
e 63 845
e 63 853
e 63 864
e 63 866
e 63 870
e 63 873
e 63 878
e 63 884
e 63 893
e 63 900
e 63 914
e 63 920
e 63 926
e 63 936
e 63 941
e 63 944
e 63 954
e 63 969
e 63 980
e 63 983
e 63 992
e 63 999
e 64 274
e 64 282
e 64 284
e 64 289
e 64 330
e 64 332
e 64 350
e 64 363
e 64 377
e 64 378
e 64 397
e 64 431
e 64 433
e 64 439
e 64 443
e 64 447
e 64 479
e 64 485
e 64 488
e 64 492
e 64 508
e 64 523
e 64 528
e 64 530
e 64 549
e 64 556
e 64 558
e 64 561
e 64 564
e 64 571
e 64 588
e 64 595
e 64 607
e 64 608
e 64 633
e 64 646
e 64 654
e 64 670
e 64 687
e 64 708
e 64 712
e 64 713
e 64 716
e 64 717
e 64 740
e 64 752
e 64 768
e 64 772
e 64 800
e 64 845
e 64 864
e 64 884
e 64 886
e 64 888
e 64 893
e 64 913
e 64 914
e 64 918
e 64 919
e 64 963
e 64 970
e 64 971
e 64 991
e 64 996
e 65 256
e 65 261
e 65 262
e 65 263
e 65 275
e 65 291
e 65 302
e 65 310
e 65 318
e 65 380
e 65 395
e 65 401
e 65 422
e 65 438
e 65 451
e 65 456
e 65 459
e 65 468
e 65 470
e 65 471
e 65 472
e 65 482
e 65 494
e 65 497
e 65 499
e 65 512
e 65 523
e 65 524
e 65 537
e 65 544
e 65 549
e 65 550
e 65 559
e 65 560
e 65 578
e 65 600
e 65 601
e 65 604
e 65 613
e 65 629
e 65 630
e 65 634
e 65 678
e 65 707
e 65 710
e 65 719
e 65 724
e 65 732
e 65 743
e 65 753
e 65 755
e 65 762
e 65 785
e 65 789
e 65 790
e 65 793
e 65 797
e 65 807
e 65 820
e 65 837
e 65 853
e 65 855
e 65 872
e 65 882
e 65 883
e 65 908
e 65 911
e 65 930
e 65 935
e 65 940
e 65 953
e 65 968
e 65 969
e 65 972
e 65 976
e 65 985
e 65 998
e 66 256
e 66 270
e 66 294
e 66 301
e 66 318
e 66 321
e 66 334
e 66 336
e 66 341
e 66 342
e 66 378
e 66 390
e 66 393
e 66 402
e 66 414
e 66 421
e 66 426
e 66 445
e 66 447
e 66 448
e 66 450
e 66 451
e 66 464
e 66 471
e 66 474
e 66 479
e 66 486
e 66 496
e 66 508
e 66 513
e 66 527
e 66 534
e 66 536
e 66 545
e 66 557
e 66 566
e 66 585
e 66 589
e 66 604
e 66 606
e 66 621
e 66 637
e 66 647
e 66 659
e 66 676
e 66 684
e 66 690
e 66 693
e 66 697
e 66 698
e 66 701
e 66 702
e 66 705
e 66 707
e 66 713
e 66 719
e 66 729
e 66 751
e 66 760
e 66 765
e 66 771
e 66 772
e 66 778
e 66 780
e 66 788
e 66 796
e 66 801
e 66 802
e 66 804
e 66 814
e 66 824
e 66 825
e 66 828
e 66 836
e 66 837
e 66 846
e 66 866
e 66 881
e 66 886
e 66 903
e 66 906
e 66 915
e 66 918
e 66 938
e 66 963
e 66 964
e 66 965
e 66 969
e 66 971
e 66 975
e 66 976
e 66 999
e 67 271
e 67 287
e 67 290
e 67 299
e 67 325
e 67 342
e 67 352
e 67 354
e 67 360
e 67 361
e 67 390
e 67 403
e 67 420
e 67 442
e 67 445
e 67 449
e 67 475
e 67 493
e 67 539
e 67 545
e 67 574
e 67 582
e 67 601
e 67 602
e 67 612
e 67 644
e 67 657
e 67 658
e 67 659
e 67 676
e 67 684
e 67 702
e 67 710
e 67 723
e 67 729
e 67 745
e 67 763
e 67 768
e 67 774
e 67 775
e 67 787
e 67 818
e 67 821
e 67 828
e 67 835
e 67 842
e 67 861
e 67 865
e 67 883
e 67 902
e 67 903
e 67 911
e 67 918
e 67 924
e 67 928
e 67 974
e 68 262
e 68 265
e 68 291
e 68 305
e 68 333
e 68 336
e 68 346
e 68 372
e 68 377
e 68 396
e 68 404
e 68 407
e 68 416
e 68 426
e 68 434
e 68 462
e 68 483
e 68 497
e 68 507
e 68 560
e 68 561
e 68 564
e 68 565
e 68 573
e 68 578
e 68 594
e 68 607
e 68 632
e 68 647
e 68 664
e 68 668
e 68 669
e 68 676
e 68 683
e 68 692
e 68 729
e 68 734
e 68 747
e 68 751
e 68 764
e 68 782
e 68 798
e 68 818
e 68 820
e 68 872
e 68 873
e 68 877
e 68 887
e 68 904
e 68 905
e 68 906
e 68 909
e 68 913
e 68 925
e 68 950
e 68 960
e 68 964
e 68 969
e 68 977
e 68 996
e 69 263
e 69 273
e 69 274
e 69 286
e 69 287
e 69 300
e 69 304
e 69 330
e 69 370
e 69 380
e 69 425
e 69 435
e 69 445
e 69 446
e 69 460
e 69 474
e 69 515
e 69 523
e 69 591
e 69 592
e 69 610
e 69 614
e 69 615
e 69 617
e 69 622
e 69 625
e 69 642
e 69 648
e 69 651
e 69 680
e 69 682
e 69 689
e 69 691
e 69 696
e 69 713
e 69 725
e 69 740
e 69 754
e 69 761
e 69 763
e 69 769
e 69 784
e 69 786
e 69 790
e 69 793
e 69 816
e 69 819
e 69 872
e 69 903
e 69 908
e 69 923
e 69 926
e 69 940
e 69 953
e 69 955
e 69 968
e 69 973
e 69 977
e 69 981
e 69 982
e 69 996
e 70 251
e 70 276
e 70 305
e 70 328
e 70 331
e 70 345
e 70 353
e 70 358
e 70 367
e 70 379
e 70 382
e 70 386
e 70 391
e 70 394
e 70 395
e 70 400
e 70 403
e 70 411
e 70 419
e 70 420
e 70 426
e 70 439
e 70 440
e 70 442
e 70 443
e 70 459
e 70 460
e 70 464
e 70 499
e 70 531
e 70 534
e 70 546
e 70 551
e 70 556
e 70 559
e 70 577
e 70 586
e 70 588
e 70 596
e 70 599
e 70 605
e 70 612
e 70 615
e 70 618
e 70 621
e 70 631
e 70 632
e 70 640
e 70 642
e 70 645
e 70 651
e 70 667
e 70 669
e 70 699
e 70 700
e 70 702
e 70 714
e 70 719
e 70 720
e 70 722
e 70 733
e 70 745
e 70 753
e 70 762
e 70 770
e 70 794
e 70 802
e 70 807
e 70 808
e 70 828
e 70 829
e 70 830
e 70 833
e 70 834
e 70 841
e 70 882
e 70 884
e 70 901
e 70 906
e 70 922
e 70 931
e 70 940
e 70 952
e 70 956
e 70 965
e 70 971
e 70 997
e 70 999
e 71 252
e 71 258
e 71 259
e 71 275
e 71 292
e 71 297
e 71 300
e 71 305
e 71 318
e 71 319
e 71 320
e 71 322
e 71 337
e 71 343
e 71 350
e 71 364
e 71 366
e 71 373
e 71 386
e 71 388
e 71 408
e 71 410
e 71 421
e 71 427
e 71 459
e 71 460
e 71 470
e 71 472
e 71 485
e 71 506
e 71 513
e 71 542
e 71 544
e 71 566
e 71 578
e 71 580
e 71 584
e 71 586
e 71 592
e 71 597
e 71 615
e 71 617
e 71 632
e 71 639
e 71 671
e 71 681
e 71 685
e 71 709
e 71 713
e 71 714
e 71 715
e 71 726
e 71 729
e 71 732
e 71 739
e 71 743
e 71 759
e 71 761
e 71 763
e 71 794
e 71 795
e 71 803
e 71 807
e 71 813
e 71 816
e 71 821
e 71 827
e 71 840
e 71 858
e 71 865
e 71 868
e 71 881
e 71 885
e 71 894
e 71 905
e 71 914
e 71 924
e 71 949
e 71 954
e 71 976
e 71 994
e 71 997
e 72 255
e 72 260
e 72 263
e 72 266
e 72 276
e 72 296
e 72 318
e 72 326
e 72 329
e 72 333
e 72 335
e 72 337
e 72 350
e 72 359
e 72 379
e 72 380
e 72 392
e 72 398
e 72 403
e 72 408
e 72 416
e 72 428
e 72 436
e 72 442
e 72 446
e 72 459
e 72 463
e 72 465
e 72 472
e 72 474
e 72 484
e 72 486
e 72 487
e 72 497
e 72 502
e 72 510
e 72 521
e 72 522
e 72 527
e 72 528
e 72 540
e 72 546
e 72 553
e 72 568
e 72 570
e 72 628
e 72 636
e 72 647
e 72 652
e 72 670
e 72 686
e 72 699
e 72 717
e 72 758
e 72 777
e 72 781
e 72 782
e 72 785
e 72 786
e 72 793
e 72 811
e 72 822
e 72 861
e 72 874
e 72 878
e 72 881
e 72 892
e 72 895
e 72 896
e 72 909
e 72 911
e 72 912
e 72 923
e 72 926
e 72 929
e 72 931
e 72 932
e 72 956
e 72 957
e 72 963
e 72 968
e 72 974
e 72 995
e 72 1000
e 73 267
e 73 286
e 73 289
e 73 343
e 73 351
e 73 352
e 73 357
e 73 377
e 73 403
e 73 406
e 73 441
e 73 448
e 73 467
e 73 487
e 73 515
e 73 523
e 73 550
e 73 556
e 73 566
e 73 576
e 73 593
e 73 619
e 73 622
e 73 626
e 73 628
e 73 637
e 73 647
e 73 650
e 73 652
e 73 656
e 73 657
e 73 664
e 73 675
e 73 685
e 73 689
e 73 695
e 73 715
e 73 731
e 73 740
e 73 747
e 73 759
e 73 761
e 73 766
e 73 787
e 73 794
e 73 801
e 73 807
e 73 834
e 73 840
e 73 852
e 73 869
e 73 880
e 73 885
e 73 891
e 73 893
e 73 897
e 73 903
e 73 904
e 73 916
e 73 921
e 73 938
e 73 946
e 73 972
e 73 986
e 73 987
e 73 988
e 74 285
e 74 289
e 74 290
e 74 295
e 74 297
e 74 324
e 74 331
e 74 375
e 74 380
e 74 388
e 74 390
e 74 393
e 74 400
e 74 413
e 74 436
e 74 447
e 74 448
e 74 477
e 74 483
e 74 498
e 74 507
e 74 528
e 74 534
e 74 546
e 74 568
e 74 590
e 74 600
e 74 611
e 74 614
e 74 622
e 74 640
e 74 659
e 74 672
e 74 673
e 74 684
e 74 712
e 74 718
e 74 723
e 74 724
e 74 728
e 74 749
e 74 786
e 74 822
e 74 848
e 74 856
e 74 867
e 74 884
e 74 903
e 74 927
e 74 928
e 74 937
e 74 954
e 74 961
e 74 974
e 74 976
e 74 997
e 75 274
e 75 285
e 75 310
e 75 322
e 75 325
e 75 330
e 75 331
e 75 335
e 75 337
e 75 359
e 75 379
e 75 380
e 75 396
e 75 404
e 75 442
e 75 444
e 75 451
e 75 466
e 75 470
e 75 498
e 75 505
e 75 540
e 75 547
e 75 554
e 75 555
e 75 559
e 75 560
e 75 561
e 75 571
e 75 574
e 75 578
e 75 584
e 75 588
e 75 593
e 75 600
e 75 624
e 75 639
e 75 641
e 75 665
e 75 705
e 75 729
e 75 736
e 75 749
e 75 764
e 75 767
e 75 780
e 75 781
e 75 784
e 75 788
e 75 797
e 75 803
e 75 809
e 75 828
e 75 834
e 75 847
e 75 857
e 75 867
e 75 900
e 75 902
e 75 914
e 75 915
e 75 934
e 75 935
e 75 940
e 75 945
e 75 970
e 75 980
e 75 991
e 75 996
e 76 269
e 76 272
e 76 277
e 76 284
e 76 287
e 76 290
e 76 299
e 76 314
e 76 317
e 76 350
e 76 404
e 76 406
e 76 410
e 76 411
e 76 415
e 76 418
e 76 423
e 76 431
e 76 437
e 76 443
e 76 448
e 76 450
e 76 455
e 76 468
e 76 471
e 76 474
e 76 480
e 76 491
e 76 503
e 76 537
e 76 541
e 76 547
e 76 549
e 76 581
e 76 582
e 76 585
e 76 638
e 76 647
e 76 669
e 76 676
e 76 685
e 76 686
e 76 689
e 76 695
e 76 699
e 76 705
e 76 709
e 76 730
e 76 733
e 76 744
e 76 745
e 76 750
e 76 764
e 76 766
e 76 774
e 76 776
e 76 778
e 76 784
e 76 802
e 76 810
e 76 813
e 76 834
e 76 836
e 76 841
e 76 847
e 76 866
e 76 874
e 76 882
e 76 883
e 76 891
e 76 894
e 76 898
e 76 904
e 76 905
e 76 907
e 76 909
e 76 923
e 76 935
e 76 953
e 76 955
e 76 962
e 76 968
e 76 973
e 76 978
e 76 987
e 77 251
e 77 252
e 77 258
e 77 278
e 77 298
e 77 300
e 77 338
e 77 340
e 77 367
e 77 368
e 77 379
e 77 380
e 77 381
e 77 385
e 77 390
e 77 398
e 77 409
e 77 420
e 77 421
e 77 430
e 77 434
e 77 439
e 77 440
e 77 441
e 77 447
e 77 458
e 77 477
e 77 478
e 77 479
e 77 480
e 77 484
e 77 502
e 77 505
e 77 510
e 77 513
e 77 515
e 77 528
e 77 530
e 77 541
e 77 552
e 77 560
e 77 563
e 77 565
e 77 587
e 77 609
e 77 624
e 77 640
e 77 644
e 77 649
e 77 673
e 77 676
e 77 698
e 77 701
e 77 712
e 77 717
e 77 736
e 77 757
e 77 772
e 77 774
e 77 787
e 77 812
e 77 819
e 77 820
e 77 830
e 77 858
e 77 874
e 77 878
e 77 883
e 77 892
e 77 893
e 77 912
e 77 919
e 77 920
e 77 926
e 77 932
e 77 949
e 77 969
e 77 998
e 78 254
e 78 255
e 78 267
e 78 305
e 78 314
e 78 331
e 78 341
e 78 365
e 78 366
e 78 392
e 78 409
e 78 417
e 78 421
e 78 427
e 78 432
e 78 441
e 78 459
e 78 469
e 78 477
e 78 483
e 78 494
e 78 496
e 78 501
e 78 502
e 78 516
e 78 520
e 78 521
e 78 545
e 78 547
e 78 554
e 78 556
e 78 557
e 78 561
e 78 562
e 78 564
e 78 573
e 78 585
e 78 617
e 78 627
e 78 631
e 78 640
e 78 659
e 78 679
e 78 694
e 78 710
e 78 717
e 78 727
e 78 731
e 78 737
e 78 751
e 78 759
e 78 776
e 78 779
e 78 783
e 78 789
e 78 794
e 78 807
e 78 824
e 78 832
e 78 841
e 78 854
e 78 884
e 78 891
e 78 897
e 78 898
e 78 911
e 78 943
e 78 946
e 78 955
e 78 964
e 78 974
e 78 984
e 78 998
e 79 280
e 79 283
e 79 286
e 79 289
e 79 291
e 79 297
e 79 304
e 79 329
e 79 336
e 79 351
e 79 367
e 79 370
e 79 377
e 79 386
e 79 389
e 79 401
e 79 407
e 79 420
e 79 432
e 79 437
e 79 438
e 79 439
e 79 440
e 79 444
e 79 447
e 79 467
e 79 480
e 79 487
e 79 510
e 79 521
e 79 558
e 79 560
e 79 566
e 79 597
e 79 612
e 79 620
e 79 626
e 79 637
e 79 639
e 79 661
e 79 670
e 79 672
e 79 710
e 79 712
e 79 714
e 79 719
e 79 726
e 79 728
e 79 729
e 79 734
e 79 737
e 79 742
e 79 746
e 79 748
e 79 762
e 79 764
e 79 780
e 79 788
e 79 797
e 79 805
e 79 826
e 79 827
e 79 849
e 79 850
e 79 865
e 79 871
e 79 878
e 79 900
e 79 906
e 79 908
e 79 916
e 79 920
e 79 921
e 79 930
e 79 933
e 79 943
e 79 944
e 79 953
e 79 955
e 79 956
e 79 958
e 79 972
e 80 251
e 80 253
e 80 276
e 80 288
e 80 317
e 80 365
e 80 381
e 80 388
e 80 392
e 80 395
e 80 399
e 80 403
e 80 411
e 80 416
e 80 436
e 80 444
e 80 449
e 80 450
e 80 458
e 80 467
e 80 513
e 80 514
e 80 526
e 80 538
e 80 540
e 80 542
e 80 555
e 80 560
e 80 568
e 80 580
e 80 599
e 80 603
e 80 606
e 80 620
e 80 635
e 80 636
e 80 643
e 80 647
e 80 658
e 80 659
e 80 660
e 80 670
e 80 679
e 80 680
e 80 685
e 80 694
e 80 702
e 80 707
e 80 728
e 80 735
e 80 742
e 80 749
e 80 750
e 80 751
e 80 753
e 80 765
e 80 776
e 80 783
e 80 792
e 80 800
e 80 807
e 80 825
e 80 844
e 80 845
e 80 848
e 80 856
e 80 860
e 80 866
e 80 867
e 80 868
e 80 869
e 80 877
e 80 909
e 80 912
e 80 913
e 80 931
e 80 936
e 80 942
e 80 946
e 80 952
e 80 962
e 80 974
e 80 976
e 80 992
e 80 995
e 81 255
e 81 264
e 81 295
e 81 298
e 81 309
e 81 327
e 81 328
e 81 342
e 81 361
e 81 383
e 81 393
e 81 399
e 81 414
e 81 428
e 81 430
e 81 449
e 81 467
e 81 475
e 81 481
e 81 502
e 81 509
e 81 550
e 81 553
e 81 560
e 81 566
e 81 567
e 81 576
e 81 586
e 81 612
e 81 637
e 81 653
e 81 655
e 81 666
e 81 672
e 81 675
e 81 696
e 81 704
e 81 710
e 81 716
e 81 735
e 81 745
e 81 757
e 81 761
e 81 771
e 81 775
e 81 796
e 81 801
e 81 811
e 81 813
e 81 818
e 81 823
e 81 863
e 81 877
e 81 896
e 81 913
e 81 929
e 81 944
e 81 948
e 81 952
e 81 953
e 81 958
e 81 969
e 81 980
e 81 984
e 81 987
e 82 252
e 82 255
e 82 274
e 82 289
e 82 294
e 82 296
e 82 300
e 82 319
e 82 347
e 82 377
e 82 382
e 82 384
e 82 408
e 82 410
e 82 411
e 82 434
e 82 459
e 82 466
e 82 474
e 82 480
e 82 487
e 82 489
e 82 498
e 82 502
e 82 510
e 82 525
e 82 533
e 82 538
e 82 544
e 82 548
e 82 561
e 82 586
e 82 602
e 82 612
e 82 617
e 82 641
e 82 653
e 82 660
e 82 663
e 82 672
e 82 694
e 82 701
e 82 710
e 82 719
e 82 722
e 82 737
e 82 742
e 82 771
e 82 791
e 82 806
e 82 808
e 82 822
e 82 826
e 82 839
e 82 840
e 82 855
e 82 857
e 82 859
e 82 868
e 82 871
e 82 876
e 82 877
e 82 879
e 82 898
e 82 908
e 82 921
e 82 922
e 82 938
e 82 943
e 82 946
e 82 962
e 82 984
e 82 993
e 83 267
e 83 282
e 83 293
e 83 298
e 83 300
e 83 313
e 83 316
e 83 323
e 83 343
e 83 353
e 83 362
e 83 368
e 83 402
e 83 408
e 83 411
e 83 423
e 83 427
e 83 441
e 83 446
e 83 450
e 83 452
e 83 454
e 83 464
e 83 465
e 83 471
e 83 483
e 83 485
e 83 503
e 83 516
e 83 529
e 83 540
e 83 557
e 83 561
e 83 567
e 83 574
e 83 579
e 83 582
e 83 583
e 83 605
e 83 642
e 83 644
e 83 699
e 83 701
e 83 703
e 83 707
e 83 714
e 83 721
e 83 722
e 83 741
e 83 758
e 83 785
e 83 801
e 83 805
e 83 807
e 83 813
e 83 815
e 83 827
e 83 835
e 83 849
e 83 851
e 83 876
e 83 887
e 83 891
e 83 892
e 83 894
e 83 898
e 83 914
e 83 931
e 83 940
e 83 947
e 83 955
e 83 960
e 83 966
e 83 969
e 83 982
e 83 995
e 84 271
e 84 273
e 84 274
e 84 277
e 84 289
e 84 308
e 84 323
e 84 348
e 84 354
e 84 356
e 84 358
e 84 362
e 84 372
e 84 374
e 84 379
e 84 388
e 84 395
e 84 402
e 84 411
e 84 483
e 84 495
e 84 503
e 84 518
e 84 530
e 84 554
e 84 567
e 84 581
e 84 588
e 84 605
e 84 615
e 84 621
e 84 654
e 84 662
e 84 667
e 84 670
e 84 703
e 84 704
e 84 714
e 84 715
e 84 721
e 84 732
e 84 742
e 84 763
e 84 770
e 84 773
e 84 776
e 84 785
e 84 811
e 84 816
e 84 818
e 84 821
e 84 856
e 84 874
e 84 879
e 84 882
e 84 891
e 84 900
e 84 904
e 84 912
e 84 922
e 84 929
e 84 935
e 84 937
e 84 941
e 84 944
e 84 947
e 84 951
e 84 953
e 84 959
e 84 960
e 84 966
e 84 986
e 84 993
e 85 253
e 85 254
e 85 266
e 85 272
e 85 277
e 85 284
e 85 285
e 85 287
e 85 309
e 85 318
e 85 322
e 85 326
e 85 335
e 85 353
e 85 357
e 85 388
e 85 398
e 85 410
e 85 414
e 85 422
e 85 463
e 85 468
e 85 477
e 85 479
e 85 492
e 85 498
e 85 499
e 85 507
e 85 521
e 85 525
e 85 530
e 85 534
e 85 543
e 85 548
e 85 571
e 85 581
e 85 588
e 85 596
e 85 598
e 85 615
e 85 616
e 85 628
e 85 650
e 85 654
e 85 677
e 85 682
e 85 694
e 85 704
e 85 707
e 85 740
e 85 754
e 85 760
e 85 767
e 85 768
e 85 774
e 85 778
e 85 779
e 85 781
e 85 787
e 85 788
e 85 795
e 85 802
e 85 812
e 85 816
e 85 817
e 85 839
e 85 842
e 85 850
e 85 852
e 85 862
e 85 867
e 85 874
e 85 875
e 85 911
e 85 917
e 85 921
e 85 922
e 85 923
e 85 932
e 85 939
e 85 943
e 85 947
e 85 948
e 85 964
e 85 979
e 85 997
e 86 256
e 86 258
e 86 266
e 86 269
e 86 287
e 86 289
e 86 310
e 86 313
e 86 314
e 86 336
e 86 341
e 86 349
e 86 353
e 86 356
e 86 373
e 86 374
e 86 380
e 86 390
e 86 401
e 86 408
e 86 417
e 86 425
e 86 426
e 86 429
e 86 431
e 86 453
e 86 482
e 86 499
e 86 501
e 86 504
e 86 506
e 86 522
e 86 526
e 86 530
e 86 555
e 86 573
e 86 575
e 86 576
e 86 584
e 86 594
e 86 597
e 86 602
e 86 616
e 86 621
e 86 626
e 86 638
e 86 639
e 86 644
e 86 648
e 86 683
e 86 692
e 86 696
e 86 710
e 86 715
e 86 718
e 86 722
e 86 724
e 86 729
e 86 730
e 86 754
e 86 761
e 86 771
e 86 772
e 86 773
e 86 778
e 86 779
e 86 782
e 86 791
e 86 800
e 86 816
e 86 832
e 86 842
e 86 844
e 86 849
e 86 868
e 86 881
e 86 882
e 86 885
e 86 893
e 86 896
e 86 898
e 86 903
e 86 904
e 86 905
e 86 907
e 86 921
e 86 943
e 86 950
e 86 972
e 86 977
e 86 986
e 86 993
e 86 997
e 87 260
e 87 289
e 87 302
e 87 320
e 87 325
e 87 326
e 87 335
e 87 337
e 87 341
e 87 352
e 87 356
e 87 359
e 87 360
e 87 376
e 87 382
e 87 400
e 87 419
e 87 426
e 87 447
e 87 462
e 87 472
e 87 476
e 87 478
e 87 498
e 87 501
e 87 504
e 87 505
e 87 512
e 87 529
e 87 538
e 87 541
e 87 543
e 87 547
e 87 558
e 87 561
e 87 563
e 87 565
e 87 587
e 87 602
e 87 605
e 87 608
e 87 631
e 87 639
e 87 648
e 87 649
e 87 659
e 87 667
e 87 669
e 87 672
e 87 693
e 87 704
e 87 723
e 87 727
e 87 734
e 87 737
e 87 747
e 87 748
e 87 752
e 87 757
e 87 763
e 87 774
e 87 820
e 87 828
e 87 831
e 87 853
e 87 880
e 87 889
e 87 903
e 87 929
e 87 930
e 87 931
e 87 933
e 87 934
e 87 952
e 87 953
e 87 956
e 87 963
e 87 990
e 87 993
e 87 997
e 88 261
e 88 273
e 88 276
e 88 283
e 88 287
e 88 292
e 88 297
e 88 300
e 88 315
e 88 323
e 88 324
e 88 328
e 88 331
e 88 341
e 88 349
e 88 360
e 88 368
e 88 382
e 88 384
e 88 402
e 88 405
e 88 409
e 88 431
e 88 439
e 88 451
e 88 455
e 88 473
e 88 484
e 88 487
e 88 498
e 88 505
e 88 519
e 88 521
e 88 550
e 88 551
e 88 553
e 88 556
e 88 569
e 88 574
e 88 589
e 88 602
e 88 605
e 88 620
e 88 638
e 88 642
e 88 658
e 88 676
e 88 679
e 88 682
e 88 689
e 88 690
e 88 692
e 88 709
e 88 738
e 88 750
e 88 752
e 88 763
e 88 782
e 88 784
e 88 792
e 88 801
e 88 804
e 88 810
e 88 825
e 88 850
e 88 863
e 88 874
e 88 875
e 88 883
e 88 900
e 88 906
e 88 912
e 88 915
e 88 922
e 88 926
e 88 930
e 88 980
e 88 987
e 88 993
e 89 266
e 89 274
e 89 280
e 89 284
e 89 291
e 89 297
e 89 311
e 89 317
e 89 328
e 89 334
e 89 337
e 89 343
e 89 354
e 89 362
e 89 375
e 89 405
e 89 406
e 89 419
e 89 438
e 89 466
e 89 474
e 89 510
e 89 511
e 89 513
e 89 514
e 89 516
e 89 571
e 89 574
e 89 578
e 89 591
e 89 607
e 89 616
e 89 622
e 89 627
e 89 636
e 89 637
e 89 642
e 89 645
e 89 669
e 89 673
e 89 687
e 89 692
e 89 697
e 89 700
e 89 706
e 89 708
e 89 731
e 89 753
e 89 756
e 89 774
e 89 778
e 89 783
e 89 791
e 89 815
e 89 821
e 89 829
e 89 830
e 89 842
e 89 852
e 89 859
e 89 878
e 89 893
e 89 911
e 89 915
e 89 918
e 89 921
e 89 930
e 89 954
e 89 965
e 89 974
e 89 983
e 89 989
e 89 999
e 90 269
e 90 278
e 90 285
e 90 333
e 90 334
e 90 341
e 90 349
e 90 351
e 90 357
e 90 361
e 90 376
e 90 398
e 90 406
e 90 415
e 90 428
e 90 429
e 90 430
e 90 431
e 90 433
e 90 437
e 90 459
e 90 478
e 90 484
e 90 486
e 90 488
e 90 501
e 90 517
e 90 530
e 90 534
e 90 538
e 90 541
e 90 545
e 90 556
e 90 562
e 90 578
e 90 585
e 90 601
e 90 607
e 90 611
e 90 612
e 90 629
e 90 642
e 90 653
e 90 658
e 90 668
e 90 676
e 90 677
e 90 683
e 90 687
e 90 692
e 90 697
e 90 712
e 90 718
e 90 720
e 90 728
e 90 743
e 90 748
e 90 769
e 90 770
e 90 784
e 90 801
e 90 837
e 90 853
e 90 855
e 90 866
e 90 900
e 90 928
e 90 938
e 90 960
e 90 994
e 90 997
e 91 261
e 91 281
e 91 286
e 91 292
e 91 294
e 91 295
e 91 306
e 91 310
e 91 323
e 91 325
e 91 340
e 91 342
e 91 354
e 91 365
e 91 368
e 91 378
e 91 382
e 91 383
e 91 398
e 91 407
e 91 415
e 91 431
e 91 437
e 91 439
e 91 456
e 91 458
e 91 466
e 91 473
e 91 474
e 91 495
e 91 498
e 91 500
e 91 501
e 91 506
e 91 509
e 91 525
e 91 542
e 91 549
e 91 551
e 91 564
e 91 579
e 91 599
e 91 609
e 91 615
e 91 635
e 91 663
e 91 677
e 91 689
e 91 698
e 91 706
e 91 712
e 91 732
e 91 741
e 91 742
e 91 749
e 91 754
e 91 757
e 91 763
e 91 766
e 91 767
e 91 770
e 91 776
e 91 814
e 91 822
e 91 823
e 91 826
e 91 863
e 91 877
e 91 878
e 91 882
e 91 883
e 91 913
e 91 925
e 91 933
e 91 970
e 91 975
e 91 999
e 91 1000
e 92 276
e 92 279
e 92 287
e 92 300
e 92 301
e 92 303
e 92 311
e 92 321
e 92 338
e 92 346
e 92 347
e 92 358
e 92 363
e 92 365
e 92 380
e 92 385
e 92 387
e 92 399
e 92 457
e 92 460
e 92 467
e 92 476
e 92 485
e 92 487
e 92 495
e 92 506
e 92 507
e 92 514
e 92 515
e 92 533
e 92 541
e 92 542
e 92 570
e 92 572
e 92 584
e 92 607
e 92 615
e 92 638
e 92 645
e 92 655
e 92 666
e 92 668
e 92 680
e 92 682
e 92 697
e 92 700
e 92 717
e 92 728
e 92 730
e 92 733
e 92 740
e 92 750
e 92 761
e 92 793
e 92 796
e 92 798
e 92 799
e 92 827
e 92 840
e 92 848
e 92 855
e 92 857
e 92 865
e 92 869
e 92 872
e 92 886
e 92 892
e 92 902
e 92 903
e 92 906
e 92 910
e 92 911
e 92 914
e 92 915
e 92 934
e 92 957
e 92 965
e 92 968
e 92 984
e 92 989
e 92 992
e 92 997
e 92 999
e 92 1000
e 93 253
e 93 257
e 93 268
e 93 270
e 93 296
e 93 300
e 93 303
e 93 331
e 93 338
e 93 340
e 93 357
e 93 360
e 93 363
e 93 372
e 93 393
e 93 400
e 93 423
e 93 434
e 93 441
e 93 474
e 93 486
e 93 494
e 93 500
e 93 511
e 93 512
e 93 522
e 93 533
e 93 534
e 93 543
e 93 547
e 93 575
e 93 595
e 93 609
e 93 619
e 93 636
e 93 646
e 93 651
e 93 659
e 93 661
e 93 670
e 93 672
e 93 675
e 93 686
e 93 692
e 93 738
e 93 740
e 93 745
e 93 759
e 93 761
e 93 762
e 93 789
e 93 800
e 93 812
e 93 817
e 93 820
e 93 821
e 93 833
e 93 835
e 93 847
e 93 852
e 93 864
e 93 877
e 93 880
e 93 902
e 93 907
e 93 910
e 93 914
e 93 916
e 93 918
e 93 920
e 93 931
e 93 932
e 93 937
e 93 958
e 93 962
e 93 968
e 93 973
e 93 994
e 93 996
e 93 999
e 94 256
e 94 268
e 94 273
e 94 280
e 94 321
e 94 322
e 94 327
e 94 359
e 94 361
e 94 365
e 94 379
e 94 380
e 94 383
e 94 386
e 94 388
e 94 398
e 94 400
e 94 403
e 94 418
e 94 432
e 94 433
e 94 436
e 94 453
e 94 471
e 94 482
e 94 531
e 94 536
e 94 544
e 94 546
e 94 549
e 94 579
e 94 580
e 94 588
e 94 595
e 94 623
e 94 634
e 94 651
e 94 669
e 94 674
e 94 678
e 94 684
e 94 692
e 94 703
e 94 711
e 94 719
e 94 724
e 94 727
e 94 740
e 94 755
e 94 757
e 94 773
e 94 777
e 94 785
e 94 788
e 94 794
e 94 797
e 94 805
e 94 811
e 94 817
e 94 820
e 94 828
e 94 831
e 94 839
e 94 844
e 94 862
e 94 863
e 94 890
e 94 902
e 94 912
e 94 916
e 94 920
e 94 963
e 94 965
e 94 969
e 94 984
e 95 272
e 95 280
e 95 289
e 95 294
e 95 301
e 95 310
e 95 326
e 95 335
e 95 347
e 95 350
e 95 356
e 95 360
e 95 368
e 95 370
e 95 379
e 95 384
e 95 386
e 95 398
e 95 420
e 95 425
e 95 456
e 95 460
e 95 469
e 95 477
e 95 485
e 95 490
e 95 510
e 95 512
e 95 523
e 95 543
e 95 544
e 95 586
e 95 596
e 95 617
e 95 627
e 95 651
e 95 655
e 95 658
e 95 667
e 95 675
e 95 718
e 95 720
e 95 721
e 95 729
e 95 730
e 95 731
e 95 734
e 95 736
e 95 739
e 95 750
e 95 760
e 95 764
e 95 770
e 95 792
e 95 793
e 95 799
e 95 800
e 95 812
e 95 813
e 95 839
e 95 842
e 95 862
e 95 872
e 95 892
e 95 895
e 95 897
e 95 898
e 95 910
e 95 920
e 95 929
e 95 931
e 95 933
e 95 934
e 95 963
e 95 967
e 95 982
e 95 984
e 95 986
e 95 998
e 96 256
e 96 264
e 96 278
e 96 290
e 96 301
e 96 328
e 96 332
e 96 336
e 96 340
e 96 342
e 96 365
e 96 374
e 96 386
e 96 399
e 96 400
e 96 401
e 96 402
e 96 404
e 96 405
e 96 407
e 96 410
e 96 414
e 96 427
e 96 445
e 96 470
e 96 474
e 96 490
e 96 491
e 96 503
e 96 510
e 96 517
e 96 534
e 96 541
e 96 554
e 96 571
e 96 583
e 96 584
e 96 585
e 96 586
e 96 601
e 96 603
e 96 604
e 96 613
e 96 639
e 96 642
e 96 679
e 96 684
e 96 700
e 96 701
e 96 702
e 96 707
e 96 713
e 96 720
e 96 728
e 96 733
e 96 736
e 96 745
e 96 753
e 96 780
e 96 792
e 96 796
e 96 802
e 96 828
e 96 833
e 96 859
e 96 880
e 96 888
e 96 899
e 96 909
e 96 973
e 96 981
e 96 988
e 97 251
e 97 265
e 97 266
e 97 279
e 97 286
e 97 323
e 97 324
e 97 332
e 97 334
e 97 335
e 97 338
e 97 340
e 97 342
e 97 352
e 97 362
e 97 364
e 97 370
e 97 374
e 97 383
e 97 384
e 97 417
e 97 435
e 97 439
e 97 453
e 97 476
e 97 488
e 97 508
e 97 525
e 97 535
e 97 540
e 97 557
e 97 564
e 97 575
e 97 583
e 97 588
e 97 589
e 97 603
e 97 646
e 97 649
e 97 662
e 97 668
e 97 669
e 97 680
e 97 693
e 97 709
e 97 720
e 97 722
e 97 723
e 97 731
e 97 740
e 97 758
e 97 766
e 97 809
e 97 830
e 97 831
e 97 851
e 97 869
e 97 871
e 97 876
e 97 893
e 97 903
e 97 906
e 97 920
e 97 926
e 97 927
e 97 932
e 97 934
e 97 944
e 97 945
e 97 951
e 97 956
e 97 960
e 97 964
e 98 251
e 98 263
e 98 275
e 98 279
e 98 308
e 98 312
e 98 317
e 98 339
e 98 346
e 98 347
e 98 351
e 98 382
e 98 397
e 98 398
e 98 407
e 98 414
e 98 437
e 98 445
e 98 448
e 98 466
e 98 478
e 98 483
e 98 484
e 98 499
e 98 503
e 98 512
e 98 528
e 98 532
e 98 535
e 98 536
e 98 555
e 98 558
e 98 586
e 98 587
e 98 595
e 98 609
e 98 610
e 98 611
e 98 625
e 98 638
e 98 640
e 98 643
e 98 652
e 98 664
e 98 673
e 98 683
e 98 703
e 98 715
e 98 721
e 98 734
e 98 735
e 98 738
e 98 740
e 98 743
e 98 753
e 98 754
e 98 773
e 98 779
e 98 781
e 98 787
e 98 827
e 98 854
e 98 858
e 98 890
e 98 899
e 98 901
e 98 907
e 98 924
e 98 929
e 98 948
e 98 949
e 98 952
e 98 965
e 98 974
e 98 989
e 98 995
e 99 269
e 99 279
e 99 285
e 99 294
e 99 297
e 99 299
e 99 306
e 99 325
e 99 347
e 99 350
e 99 363
e 99 385
e 99 406
e 99 433
e 99 446
e 99 449
e 99 454
e 99 468
e 99 471
e 99 472
e 99 484
e 99 500
e 99 507
e 99 523
e 99 527
e 99 535
e 99 546
e 99 567
e 99 575
e 99 584
e 99 587
e 99 588
e 99 590
e 99 591
e 99 602
e 99 604
e 99 608
e 99 611
e 99 627
e 99 628
e 99 636
e 99 645
e 99 651
e 99 653
e 99 657
e 99 681
e 99 684
e 99 687
e 99 690
e 99 713
e 99 722
e 99 730
e 99 756
e 99 761
e 99 766
e 99 788
e 99 791
e 99 817
e 99 818
e 99 828
e 99 842
e 99 868
e 99 902
e 99 904
e 99 909
e 99 910
e 99 919
e 99 922
e 99 937
e 99 946
e 99 959
e 99 960
e 99 963
e 99 968
e 99 969
e 99 978
e 99 980
e 99 988
e 99 993
e 100 253
e 100 259
e 100 260
e 100 269
e 100 280
e 100 294
e 100 315
e 100 329
e 100 357
e 100 392
e 100 393
e 100 420
e 100 437
e 100 450
e 100 458
e 100 461
e 100 484
e 100 516
e 100 523
e 100 529
e 100 536
e 100 541
e 100 552
e 100 554
e 100 575
e 100 585
e 100 600
e 100 601
e 100 604
e 100 610
e 100 641
e 100 652
e 100 653
e 100 656
e 100 657
e 100 669
e 100 690
e 100 692
e 100 697
e 100 699
e 100 716
e 100 721
e 100 734
e 100 737
e 100 742
e 100 753
e 100 754
e 100 760
e 100 770
e 100 793
e 100 811
e 100 826
e 100 830
e 100 845
e 100 870
e 100 875
e 100 886
e 100 903
e 100 904
e 100 921
e 100 923
e 100 935
e 100 947
e 100 951
e 100 956
e 100 966
e 100 967
e 100 974
e 100 978
e 100 985
e 100 999
e 101 252
e 101 264
e 101 267
e 101 282
e 101 288
e 101 298
e 101 300
e 101 308
e 101 320
e 101 323
e 101 326
e 101 335
e 101 336
e 101 353
e 101 377
e 101 379
e 101 382
e 101 389
e 101 420
e 101 423
e 101 435
e 101 444
e 101 451
e 101 453
e 101 456
e 101 463
e 101 480
e 101 483
e 101 519
e 101 534
e 101 536
e 101 539
e 101 545
e 101 567
e 101 570
e 101 584
e 101 597
e 101 601
e 101 614
e 101 626
e 101 633
e 101 640
e 101 651
e 101 664
e 101 670
e 101 675
e 101 689
e 101 695
e 101 712
e 101 721
e 101 723
e 101 728
e 101 743
e 101 744
e 101 761
e 101 775
e 101 788
e 101 793
e 101 797
e 101 800
e 101 807
e 101 810
e 101 812
e 101 830
e 101 845
e 101 846
e 101 851
e 101 863
e 101 876
e 101 881
e 101 882
e 101 900
e 101 901
e 101 923
e 101 952
e 101 958
e 101 969
e 102 254
e 102 262
e 102 268
e 102 273
e 102 299
e 102 321
e 102 323
e 102 324
e 102 340
e 102 357
e 102 399
e 102 401
e 102 414
e 102 418
e 102 422
e 102 426
e 102 434
e 102 439
e 102 458
e 102 465
e 102 473
e 102 475
e 102 488
e 102 490
e 102 492
e 102 502
e 102 513
e 102 514
e 102 535
e 102 568
e 102 571
e 102 580
e 102 588
e 102 595
e 102 596
e 102 598
e 102 601
e 102 620
e 102 622
e 102 642
e 102 650
e 102 683
e 102 684
e 102 711
e 102 713
e 102 721
e 102 726
e 102 733
e 102 747
e 102 749
e 102 794
e 102 802
e 102 808
e 102 820
e 102 831
e 102 840
e 102 845
e 102 868
e 102 886
e 102 893
e 102 907
e 102 908
e 102 921
e 102 942
e 102 948
e 102 958
e 102 959
e 102 961
e 102 971
e 102 981
e 102 985
e 103 252
e 103 268
e 103 277
e 103 284
e 103 311
e 103 318
e 103 322
e 103 335
e 103 360
e 103 379
e 103 384
e 103 394
e 103 402
e 103 409
e 103 418
e 103 430
e 103 435
e 103 443
e 103 444
e 103 447
e 103 454
e 103 464
e 103 469
e 103 471
e 103 487
e 103 501
e 103 504
e 103 510
e 103 518
e 103 546
e 103 560
e 103 564
e 103 573
e 103 576
e 103 578
e 103 592
e 103 606
e 103 630
e 103 669
e 103 674
e 103 675
e 103 676
e 103 690
e 103 705
e 103 720
e 103 723
e 103 730
e 103 755
e 103 766
e 103 777
e 103 782
e 103 790
e 103 793
e 103 799
e 103 808
e 103 812
e 103 813
e 103 816
e 103 822
e 103 830
e 103 834
e 103 841
e 103 845
e 103 846
e 103 847
e 103 852
e 103 856
e 103 863
e 103 866
e 103 881
e 103 895
e 103 897
e 103 901
e 103 914
e 103 932
e 103 934
e 103 941
e 103 964
e 103 968
e 103 999
e 104 254
e 104 257
e 104 268
e 104 279
e 104 280
e 104 284
e 104 303
e 104 306
e 104 307
e 104 311
e 104 313
e 104 319
e 104 322
e 104 326
e 104 336
e 104 354
e 104 384
e 104 386
e 104 389
e 104 407
e 104 424
e 104 442
e 104 444
e 104 448
e 104 456
e 104 479
e 104 480
e 104 509
e 104 514
e 104 516
e 104 519
e 104 532
e 104 534
e 104 543
e 104 567
e 104 571
e 104 579
e 104 599
e 104 606
e 104 623
e 104 634
e 104 648
e 104 663
e 104 674
e 104 678
e 104 685
e 104 687
e 104 689
e 104 692
e 104 699
e 104 711
e 104 727
e 104 737
e 104 746
e 104 775
e 104 784
e 104 788
e 104 796
e 104 807
e 104 809
e 104 813
e 104 814
e 104 830
e 104 846
e 104 851
e 104 853
e 104 871
e 104 873
e 104 874
e 104 875
e 104 883
e 104 884
e 104 917
e 104 941
e 104 946
e 104 947
e 104 955
e 104 968
e 104 981
e 104 999
e 105 258
e 105 268
e 105 285
e 105 300
e 105 314
e 105 322
e 105 325
e 105 333
e 105 370
e 105 374
e 105 399
e 105 413
e 105 434
e 105 438
e 105 448
e 105 452
e 105 458
e 105 460
e 105 463
e 105 465
e 105 489
e 105 498
e 105 503
e 105 505
e 105 506
e 105 508
e 105 529
e 105 546
e 105 563
e 105 565
e 105 571
e 105 586
e 105 594
e 105 595
e 105 601
e 105 607
e 105 623
e 105 657
e 105 673
e 105 682
e 105 683
e 105 720
e 105 733
e 105 740
e 105 746
e 105 755
e 105 763
e 105 769
e 105 778
e 105 779
e 105 783
e 105 786
e 105 792
e 105 800
e 105 819
e 105 820
e 105 824
e 105 831
e 105 841
e 105 852
e 105 860
e 105 871
e 105 875
e 105 890
e 105 893
e 105 913
e 105 921
e 105 924
e 105 935
e 105 939
e 105 943
e 105 958
e 105 961
e 105 962
e 105 1000
e 106 263
e 106 265
e 106 266
e 106 270
e 106 273
e 106 293
e 106 294
e 106 312
e 106 314
e 106 327
e 106 328
e 106 385
e 106 388
e 106 391
e 106 396
e 106 397
e 106 409
e 106 421
e 106 428
e 106 432
e 106 434
e 106 442
e 106 444
e 106 447
e 106 468
e 106 486
e 106 497
e 106 524
e 106 561
e 106 563
e 106 566
e 106 591
e 106 618
e 106 648
e 106 668
e 106 669
e 106 677
e 106 701
e 106 720
e 106 721
e 106 751
e 106 752
e 106 754
e 106 758
e 106 759
e 106 764
e 106 765
e 106 826
e 106 837
e 106 887
e 106 902
e 106 909
e 106 911
e 106 939
e 106 941
e 106 942
e 106 948
e 106 968
e 106 971
e 106 975
e 106 979
e 106 986
e 107 264
e 107 267
e 107 274
e 107 276
e 107 283
e 107 284
e 107 285
e 107 290
e 107 305
e 107 317
e 107 321
e 107 327
e 107 330
e 107 338
e 107 344
e 107 355
e 107 361
e 107 363
e 107 368
e 107 379
e 107 380
e 107 415
e 107 421
e 107 422
e 107 429
e 107 437
e 107 446
e 107 457
e 107 463
e 107 472
e 107 489
e 107 491
e 107 521
e 107 523
e 107 529
e 107 534
e 107 540
e 107 573
e 107 574
e 107 579
e 107 605
e 107 613
e 107 646
e 107 655
e 107 663
e 107 685
e 107 703
e 107 706
e 107 724
e 107 733
e 107 753
e 107 774
e 107 806
e 107 834
e 107 846
e 107 857
e 107 871
e 107 872
e 107 876
e 107 884
e 107 887
e 107 899
e 107 911
e 107 912
e 107 913
e 107 919
e 107 963
e 107 964
e 107 965
e 107 985
e 108 251
e 108 256
e 108 285
e 108 293
e 108 298
e 108 303
e 108 306
e 108 311
e 108 315
e 108 321
e 108 337
e 108 352
e 108 368
e 108 370
e 108 374
e 108 389
e 108 396
e 108 399
e 108 403
e 108 408
e 108 411
e 108 412
e 108 414
e 108 422
e 108 425
e 108 465
e 108 475
e 108 476
e 108 492
e 108 507
e 108 508
e 108 527
e 108 548
e 108 553
e 108 554
e 108 556
e 108 561
e 108 567
e 108 574
e 108 579
e 108 580
e 108 599
e 108 606
e 108 613
e 108 617
e 108 618
e 108 625
e 108 626
e 108 633
e 108 635
e 108 641
e 108 653
e 108 658
e 108 669
e 108 675
e 108 685
e 108 709
e 108 711
e 108 730
e 108 761
e 108 766
e 108 769
e 108 774
e 108 803
e 108 808
e 108 812
e 108 826
e 108 828
e 108 829
e 108 848
e 108 861
e 108 865
e 108 884
e 108 920
e 108 932
e 108 933
e 108 958
e 108 959
e 108 973
e 108 992
e 109 252
e 109 260
e 109 266
e 109 277
e 109 285
e 109 294
e 109 297
e 109 308
e 109 362
e 109 366
e 109 370
e 109 376
e 109 379
e 109 389
e 109 427
e 109 432
e 109 471
e 109 481
e 109 504
e 109 519
e 109 522
e 109 533
e 109 534
e 109 535
e 109 551
e 109 613
e 109 620
e 109 623
e 109 628
e 109 646
e 109 666
e 109 671
e 109 680
e 109 705
e 109 706
e 109 723
e 109 730
e 109 739
e 109 753
e 109 757
e 109 763
e 109 771
e 109 780
e 109 791
e 109 800
e 109 809
e 109 811
e 109 814
e 109 839
e 109 842
e 109 859
e 109 861
e 109 869
e 109 879
e 109 883
e 109 891
e 109 903
e 109 908
e 109 923
e 109 948
e 109 957
e 109 971
e 109 988
e 110 266
e 110 280
e 110 285
e 110 303
e 110 310
e 110 317
e 110 338
e 110 346
e 110 351
e 110 352
e 110 370
e 110 374
e 110 376
e 110 380
e 110 382
e 110 417
e 110 424
e 110 442
e 110 447
e 110 450
e 110 451
e 110 457
e 110 461
e 110 463
e 110 464
e 110 476
e 110 481
e 110 494
e 110 498
e 110 508
e 110 514
e 110 547
e 110 566
e 110 569
e 110 570
e 110 577
e 110 583
e 110 584
e 110 589
e 110 602
e 110 605
e 110 614
e 110 630
e 110 632
e 110 639
e 110 642
e 110 648
e 110 651
e 110 661
e 110 666
e 110 670
e 110 675
e 110 679
e 110 682
e 110 688
e 110 706
e 110 707
e 110 734
e 110 753
e 110 759
e 110 775
e 110 788
e 110 802
e 110 811
e 110 816
e 110 843
e 110 844
e 110 847
e 110 850
e 110 877
e 110 882
e 110 883
e 110 888
e 110 902
e 110 909
e 110 912
e 110 914
e 110 917
e 110 928
e 110 949
e 110 959
e 110 970
e 110 987
e 110 990
e 110 991
e 111 254
e 111 257
e 111 259
e 111 263
e 111 264
e 111 267
e 111 270
e 111 285
e 111 294
e 111 313
e 111 314
e 111 320
e 111 324
e 111 328
e 111 332
e 111 335
e 111 349
e 111 353
e 111 354
e 111 372
e 111 390
e 111 406
e 111 408
e 111 451
e 111 476
e 111 479
e 111 482
e 111 489
e 111 516
e 111 527
e 111 563
e 111 583
e 111 589
e 111 612
e 111 617
e 111 622
e 111 628
e 111 640
e 111 642
e 111 646
e 111 650
e 111 655
e 111 657
e 111 668
e 111 690
e 111 691
e 111 694
e 111 706
e 111 711
e 111 718
e 111 738
e 111 765
e 111 775
e 111 776
e 111 777
e 111 808
e 111 815
e 111 824
e 111 827
e 111 861
e 111 866
e 111 870
e 111 875
e 111 895
e 111 907
e 111 921
e 111 937
e 111 940
e 111 945
e 111 947
e 111 950
e 111 976
e 111 990
e 111 997
e 111 999
e 112 269
e 112 273
e 112 293
e 112 295
e 112 304
e 112 315
e 112 326
e 112 331
e 112 356
e 112 359
e 112 380
e 112 405
e 112 420
e 112 425
e 112 426
e 112 438
e 112 450
e 112 451
e 112 516
e 112 521
e 112 533
e 112 540
e 112 543
e 112 545
e 112 549
e 112 560
e 112 578
e 112 593
e 112 597
e 112 603
e 112 611
e 112 618
e 112 626
e 112 628
e 112 631
e 112 684
e 112 688
e 112 689
e 112 700
e 112 701
e 112 703
e 112 707
e 112 720
e 112 736
e 112 755
e 112 765
e 112 766
e 112 777
e 112 778
e 112 780
e 112 782
e 112 784
e 112 785
e 112 799
e 112 803
e 112 807
e 112 819
e 112 826
e 112 831
e 112 850
e 112 858
e 112 871
e 112 887
e 112 895
e 112 903
e 112 908
e 112 913
e 112 927
e 112 929
e 112 930
e 112 945
e 112 958
e 112 966
e 112 967
e 112 970
e 112 972
e 112 978
e 112 982
e 112 998
e 113 252
e 113 254
e 113 273
e 113 300
e 113 333
e 113 342
e 113 355
e 113 361
e 113 362
e 113 367
e 113 383
e 113 392
e 113 404
e 113 421
e 113 430
e 113 438
e 113 450
e 113 459
e 113 470
e 113 478
e 113 483
e 113 493
e 113 494
e 113 502
e 113 514
e 113 520
e 113 527
e 113 532
e 113 536
e 113 552
e 113 555
e 113 590
e 113 615
e 113 629
e 113 630
e 113 632
e 113 668
e 113 687
e 113 693
e 113 695
e 113 711
e 113 713
e 113 734
e 113 738
e 113 761
e 113 798
e 113 807
e 113 812
e 113 822
e 113 826
e 113 836
e 113 846
e 113 866
e 113 868
e 113 869
e 113 889
e 113 891
e 113 895
e 113 908
e 113 913
e 113 916
e 113 922
e 113 924
e 113 938
e 113 943
e 113 951
e 113 956
e 113 957
e 113 976
e 113 982
e 113 994
e 114 272
e 114 296
e 114 297
e 114 315
e 114 328
e 114 344
e 114 348
e 114 377
e 114 378
e 114 401
e 114 402
e 114 408
e 114 417
e 114 430
e 114 432
e 114 435
e 114 436
e 114 442
e 114 447
e 114 451
e 114 456
e 114 467
e 114 482
e 114 487
e 114 488
e 114 514
e 114 536
e 114 539
e 114 543
e 114 547
e 114 548
e 114 568
e 114 598
e 114 606
e 114 607
e 114 613
e 114 628
e 114 640
e 114 648
e 114 657
e 114 658
e 114 660
e 114 701
e 114 707
e 114 711
e 114 725
e 114 728
e 114 730
e 114 739
e 114 747
e 114 753
e 114 757
e 114 778
e 114 798
e 114 828
e 114 836
e 114 853
e 114 857
e 114 869
e 114 879
e 114 883
e 114 926
e 114 930
e 114 933
e 114 957
e 114 961
e 114 964
e 114 996
e 115 288
e 115 303
e 115 312
e 115 329
e 115 387
e 115 405
e 115 418
e 115 420
e 115 428
e 115 448
e 115 472
e 115 475
e 115 497
e 115 503
e 115 509
e 115 514
e 115 519
e 115 520
e 115 521
e 115 532
e 115 539
e 115 540
e 115 575
e 115 576
e 115 584
e 115 616
e 115 622
e 115 639
e 115 642
e 115 645
e 115 648
e 115 653
e 115 654
e 115 657
e 115 673
e 115 675
e 115 707
e 115 717
e 115 745
e 115 751
e 115 752
e 115 773
e 115 785
e 115 825
e 115 837
e 115 847
e 115 849
e 115 853
e 115 854
e 115 865
e 115 890
e 115 900
e 115 912
e 115 925
e 115 960
e 115 961
e 115 962
e 115 969
e 115 971
e 116 259
e 116 260
e 116 265
e 116 272
e 116 278
e 116 279
e 116 291
e 116 298
e 116 315
e 116 342
e 116 349
e 116 366
e 116 368
e 116 388
e 116 392
e 116 396
e 116 398
e 116 411
e 116 412
e 116 424
e 116 428
e 116 440
e 116 445
e 116 449
e 116 457
e 116 458
e 116 461
e 116 469
e 116 482
e 116 494
e 116 507
e 116 515
e 116 522
e 116 532
e 116 544
e 116 547
e 116 550
e 116 557
e 116 574
e 116 575
e 116 592
e 116 593
e 116 594
e 116 613
e 116 622
e 116 633
e 116 648
e 116 656
e 116 670
e 116 684
e 116 716
e 116 726
e 116 731
e 116 745
e 116 749
e 116 757
e 116 762
e 116 777
e 116 780
e 116 790
e 116 803
e 116 808
e 116 834
e 116 836
e 116 856
e 116 860
e 116 863
e 116 866
e 116 868
e 116 876
e 116 892
e 116 894
e 116 897
e 116 908
e 116 913
e 116 916
e 116 921
e 116 976
e 116 979
e 116 990
e 116 993
e 116 998
e 117 251
e 117 258
e 117 281
e 117 282
e 117 290
e 117 292
e 117 299
e 117 302
e 117 309
e 117 323
e 117 333
e 117 341
e 117 358
e 117 372
e 117 376
e 117 382
e 117 390
e 117 400
e 117 417
e 117 422
e 117 451
e 117 455
e 117 474
e 117 482
e 117 496
e 117 500
e 117 512
e 117 513
e 117 516
e 117 532
e 117 533
e 117 546
e 117 550
e 117 555
e 117 556
e 117 566
e 117 569
e 117 577
e 117 593
e 117 598
e 117 616
e 117 623
e 117 640
e 117 649
e 117 650
e 117 655
e 117 674
e 117 688
e 117 690
e 117 695
e 117 702
e 117 729
e 117 734
e 117 749
e 117 762
e 117 763
e 117 769
e 117 772
e 117 787
e 117 793
e 117 794
e 117 795
e 117 798
e 117 804
e 117 813
e 117 819
e 117 836
e 117 844
e 117 849
e 117 856
e 117 857
e 117 858
e 117 867
e 117 881
e 117 909
e 117 921
e 117 941
e 117 955
e 117 957
e 117 968
e 117 985
e 118 251
e 118 260
e 118 266
e 118 270
e 118 272
e 118 292
e 118 303
e 118 308
e 118 319
e 118 325
e 118 328
e 118 329
e 118 353
e 118 358
e 118 383
e 118 390
e 118 407
e 118 416
e 118 417
e 118 421
e 118 422
e 118 430
e 118 439
e 118 453
e 118 457
e 118 475
e 118 481
e 118 491
e 118 492
e 118 494
e 118 511
e 118 530
e 118 545
e 118 570
e 118 571
e 118 572
e 118 596
e 118 600
e 118 610
e 118 612
e 118 662
e 118 666
e 118 687
e 118 703
e 118 707
e 118 711
e 118 724
e 118 725
e 118 742
e 118 746
e 118 748
e 118 755
e 118 761
e 118 763
e 118 764
e 118 772
e 118 782
e 118 791
e 118 793
e 118 797
e 118 800
e 118 805
e 118 819
e 118 838
e 118 866
e 118 877
e 118 879
e 118 882
e 118 884
e 118 885
e 118 888
e 118 896
e 118 918
e 118 937
e 118 945
e 118 949
e 118 953
e 118 965
e 118 966
e 118 975
e 118 976
e 118 991
e 119 263
e 119 264
e 119 281
e 119 285
e 119 287
e 119 304
e 119 331
e 119 339
e 119 354
e 119 360
e 119 371
e 119 379
e 119 387
e 119 407
e 119 419
e 119 424
e 119 429
e 119 447
e 119 453
e 119 474
e 119 495
e 119 499
e 119 534
e 119 545
e 119 547
e 119 554
e 119 556
e 119 561
e 119 567
e 119 576
e 119 581
e 119 599
e 119 602
e 119 607
e 119 630
e 119 634
e 119 640
e 119 649
e 119 653
e 119 670
e 119 677
e 119 680
e 119 715
e 119 716
e 119 722
e 119 724
e 119 731
e 119 739
e 119 750
e 119 753
e 119 767
e 119 773
e 119 806
e 119 809
e 119 814
e 119 820
e 119 821
e 119 826
e 119 841
e 119 845
e 119 854
e 119 863
e 119 870
e 119 875
e 119 880
e 119 885
e 119 891
e 119 894
e 119 948
e 119 951
e 119 972
e 119 983
e 120 259
e 120 288
e 120 289
e 120 293
e 120 305
e 120 307
e 120 329
e 120 332
e 120 341
e 120 345
e 120 354
e 120 360
e 120 372
e 120 394
e 120 398
e 120 406
e 120 422
e 120 427
e 120 431
e 120 439
e 120 456
e 120 469
e 120 478
e 120 490
e 120 497
e 120 508
e 120 514
e 120 529
e 120 545
e 120 549
e 120 565
e 120 577
e 120 585
e 120 618
e 120 619
e 120 626
e 120 639
e 120 641
e 120 647
e 120 654
e 120 671
e 120 677
e 120 688
e 120 700
e 120 704
e 120 717
e 120 721
e 120 732
e 120 744
e 120 748
e 120 755
e 120 756
e 120 762
e 120 766
e 120 820
e 120 832
e 120 852
e 120 861
e 120 875
e 120 883
e 120 896
e 120 902
e 120 905
e 120 923
e 120 927
e 120 930
e 120 933
e 120 953
e 120 956
e 120 972
e 121 256
e 121 259
e 121 261
e 121 262
e 121 264
e 121 300
e 121 301
e 121 318
e 121 327
e 121 348
e 121 371
e 121 376
e 121 384
e 121 396
e 121 404
e 121 418
e 121 436
e 121 457
e 121 468
e 121 474
e 121 488
e 121 494
e 121 502
e 121 505
e 121 508
e 121 536
e 121 539
e 121 541
e 121 546
e 121 549
e 121 551
e 121 553
e 121 559
e 121 569
e 121 606
e 121 610
e 121 627
e 121 630
e 121 638
e 121 642
e 121 643
e 121 651
e 121 667
e 121 675
e 121 691
e 121 694
e 121 699
e 121 701
e 121 702
e 121 705
e 121 710
e 121 734
e 121 739
e 121 741
e 121 746
e 121 761
e 121 764
e 121 768
e 121 774
e 121 780
e 121 783
e 121 796
e 121 809
e 121 828
e 121 829
e 121 831
e 121 845
e 121 848
e 121 853
e 121 872
e 121 882
e 121 888
e 121 910
e 121 912
e 121 946
e 121 960
e 121 973
e 121 976
e 121 977
e 121 993
e 121 1000
e 122 279
e 122 304
e 122 306
e 122 312
e 122 316
e 122 339
e 122 363
e 122 372
e 122 373
e 122 375
e 122 391
e 122 397
e 122 404
e 122 412
e 122 425
e 122 434
e 122 444
e 122 454
e 122 469
e 122 470
e 122 471
e 122 476
e 122 480
e 122 485
e 122 490
e 122 497
e 122 517
e 122 522
e 122 526
e 122 527
e 122 537
e 122 539
e 122 546
e 122 550
e 122 555
e 122 560
e 122 579
e 122 589
e 122 593
e 122 598
e 122 604
e 122 605
e 122 613
e 122 617
e 122 623
e 122 624
e 122 630
e 122 637
e 122 642
e 122 650
e 122 652
e 122 664
e 122 678
e 122 687
e 122 689
e 122 700
e 122 711
e 122 713
e 122 720
e 122 725
e 122 740
e 122 745
e 122 762
e 122 810
e 122 842
e 122 845
e 122 889
e 122 890
e 122 894
e 122 906
e 122 909
e 122 914
e 122 919
e 122 924
e 122 930
e 122 947
e 122 958
e 122 975
e 122 997
e 122 1000
e 123 253
e 123 266
e 123 279
e 123 289
e 123 292
e 123 300
e 123 307
e 123 311
e 123 314
e 123 315
e 123 319
e 123 334
e 123 342
e 123 386
e 123 396
e 123 400
e 123 411
e 123 432
e 123 435
e 123 441
e 123 452
e 123 454
e 123 455
e 123 471
e 123 492
e 123 527
e 123 528
e 123 536
e 123 554
e 123 555
e 123 561
e 123 563
e 123 615
e 123 621
e 123 637
e 123 643
e 123 649
e 123 651
e 123 662
e 123 670
e 123 680
e 123 683
e 123 697
e 123 699
e 123 705
e 123 720
e 123 735
e 123 742
e 123 748
e 123 762
e 123 764
e 123 780
e 123 783
e 123 788
e 123 800
e 123 801
e 123 802
e 123 803
e 123 811
e 123 817
e 123 822
e 123 824
e 123 826
e 123 845
e 123 859
e 123 877
e 123 882
e 123 898
e 123 899
e 123 939
e 123 944
e 123 945
e 123 969
e 123 976
e 124 252
e 124 255
e 124 258
e 124 259
e 124 266
e 124 285
e 124 287
e 124 313
e 124 321
e 124 346
e 124 351
e 124 353
e 124 363
e 124 365
e 124 371
e 124 383
e 124 392
e 124 411
e 124 413
e 124 424
e 124 428
e 124 430
e 124 436
e 124 451
e 124 458
e 124 460
e 124 461
e 124 475
e 124 477
e 124 516
e 124 561
e 124 581
e 124 589
e 124 592
e 124 594
e 124 605
e 124 635
e 124 636
e 124 646
e 124 648
e 124 654
e 124 667
e 124 682
e 124 695
e 124 707
e 124 709
e 124 719
e 124 720
e 124 729
e 124 756
e 124 771
e 124 774
e 124 792
e 124 806
e 124 837
e 124 838
e 124 842
e 124 849
e 124 852
e 124 876
e 124 878
e 124 901
e 124 935
e 124 946
e 124 953
e 124 998
e 125 253
e 125 266
e 125 270
e 125 279
e 125 282
e 125 295
e 125 296
e 125 300
e 125 311
e 125 312
e 125 318
e 125 329
e 125 330
e 125 339
e 125 347
e 125 353
e 125 363
e 125 370
e 125 374
e 125 391
e 125 398
e 125 406
e 125 407
e 125 429
e 125 447
e 125 449
e 125 457
e 125 468
e 125 469
e 125 499
e 125 503
e 125 511
e 125 533
e 125 569
e 125 584
e 125 595
e 125 612
e 125 631
e 125 637
e 125 646
e 125 660
e 125 663
e 125 670
e 125 687
e 125 735
e 125 758
e 125 761
e 125 765
e 125 777
e 125 779
e 125 781
e 125 825
e 125 833
e 125 841
e 125 847
e 125 851
e 125 860
e 125 868
e 125 884
e 125 902
e 125 904
e 125 913
e 125 920
e 125 923
e 125 928
e 125 929
e 125 930
e 125 941
e 125 953
e 125 963
e 125 964
e 125 968
e 125 970
e 125 971
e 125 993
e 125 995
e 126 260
e 126 267
e 126 268
e 126 286
e 126 312
e 126 345
e 126 357
e 126 358
e 126 359
e 126 360
e 126 363
e 126 374
e 126 397
e 126 421
e 126 445
e 126 449
e 126 451
e 126 460
e 126 462
e 126 480
e 126 518
e 126 520
e 126 524
e 126 527
e 126 530
e 126 542
e 126 555
e 126 558
e 126 570
e 126 572
e 126 587
e 126 589
e 126 607
e 126 612
e 126 642
e 126 643
e 126 650
e 126 657
e 126 683
e 126 689
e 126 691
e 126 697
e 126 703
e 126 707
e 126 721
e 126 722
e 126 724
e 126 737
e 126 743
e 126 750
e 126 783
e 126 795
e 126 798
e 126 802
e 126 804
e 126 813
e 126 829
e 126 833
e 126 864
e 126 886
e 126 912
e 126 922
e 126 929
e 126 930
e 126 931
e 126 936
e 126 956
e 126 960
e 126 961
e 126 967
e 126 995
e 127 256
e 127 257
e 127 263
e 127 274
e 127 289
e 127 299
e 127 312
e 127 322
e 127 328
e 127 333
e 127 334
e 127 338
e 127 355
e 127 362
e 127 369
e 127 373
e 127 374
e 127 387
e 127 388
e 127 392
e 127 420
e 127 421
e 127 426
e 127 433
e 127 441
e 127 443
e 127 446
e 127 470
e 127 471
e 127 475
e 127 476
e 127 479
e 127 489
e 127 500
e 127 504
e 127 512
e 127 525
e 127 530
e 127 553
e 127 562
e 127 567
e 127 568
e 127 576
e 127 608
e 127 611
e 127 620
e 127 633
e 127 637
e 127 641
e 127 658
e 127 659
e 127 661
e 127 668
e 127 673
e 127 682
e 127 683
e 127 689
e 127 697
e 127 708
e 127 712
e 127 713
e 127 718
e 127 730
e 127 731
e 127 742
e 127 753
e 127 767
e 127 773
e 127 781
e 127 783
e 127 796
e 127 799
e 127 805
e 127 816
e 127 825
e 127 831
e 127 837
e 127 840
e 127 844
e 127 850
e 127 854
e 127 865
e 127 873
e 127 893
e 127 899
e 127 918
e 127 931
e 127 937
e 127 939
e 127 945
e 127 958
e 127 970
e 127 977
e 127 979
e 128 255
e 128 256
e 128 259
e 128 279
e 128 286
e 128 295
e 128 315
e 128 316
e 128 327
e 128 335
e 128 350
e 128 361
e 128 385
e 128 386
e 128 387
e 128 397
e 128 399
e 128 404
e 128 416
e 128 425
e 128 460
e 128 462
e 128 476
e 128 482
e 128 488
e 128 505
e 128 529
e 128 541
e 128 546
e 128 550
e 128 554
e 128 572
e 128 580
e 128 587
e 128 590
e 128 599
e 128 610
e 128 623
e 128 628
e 128 632
e 128 633
e 128 647
e 128 652
e 128 682
e 128 694
e 128 698
e 128 700
e 128 714
e 128 728
e 128 740
e 128 752
e 128 754
e 128 768
e 128 770
e 128 774
e 128 775
e 128 781
e 128 787
e 128 790
e 128 824
e 128 827
e 128 828
e 128 830
e 128 831
e 128 874
e 128 877
e 128 887
e 128 901
e 128 905
e 128 909
e 128 913
e 128 924
e 128 939
e 128 942
e 128 961
e 128 962
e 128 970
e 128 977
e 129 251
e 129 268
e 129 272
e 129 274
e 129 276
e 129 279
e 129 284
e 129 288
e 129 290
e 129 304
e 129 317
e 129 322
e 129 323
e 129 327
e 129 328
e 129 345
e 129 350
e 129 352
e 129 363
e 129 379
e 129 388
e 129 390
e 129 398
e 129 400
e 129 413
e 129 422
e 129 424
e 129 439
e 129 440
e 129 444
e 129 445
e 129 448
e 129 451
e 129 455
e 129 460
e 129 488
e 129 505
e 129 512
e 129 529
e 129 531
e 129 546
e 129 586
e 129 592
e 129 593
e 129 601
e 129 611
e 129 617
e 129 622
e 129 623
e 129 628
e 129 630
e 129 637
e 129 648
e 129 670
e 129 681
e 129 682
e 129 685
e 129 697
e 129 702
e 129 703
e 129 709
e 129 718
e 129 730
e 129 747
e 129 752
e 129 758
e 129 762
e 129 786
e 129 795
e 129 812
e 129 817
e 129 828
e 129 830
e 129 831
e 129 843
e 129 846
e 129 861
e 129 901
e 129 906
e 129 921
e 129 934
e 129 950
e 129 954
e 129 970
e 129 980
e 129 982
e 129 989
e 130 258
e 130 262
e 130 336
e 130 356
e 130 366
e 130 375
e 130 380
e 130 385
e 130 423
e 130 424
e 130 431
e 130 443
e 130 463
e 130 470
e 130 473
e 130 482
e 130 484
e 130 488
e 130 491
e 130 497
e 130 500
e 130 507
e 130 536
e 130 539
e 130 554
e 130 562
e 130 572
e 130 590
e 130 594
e 130 598
e 130 611
e 130 614
e 130 623
e 130 630
e 130 631
e 130 639
e 130 653
e 130 656
e 130 672
e 130 680
e 130 701
e 130 738
e 130 740
e 130 741
e 130 791
e 130 806
e 130 816
e 130 835
e 130 850
e 130 852
e 130 855
e 130 870
e 130 885
e 130 887
e 130 897
e 130 914
e 130 924
e 130 926
e 130 944
e 130 951
e 131 257
e 131 264
e 131 288
e 131 295
e 131 305
e 131 315
e 131 338
e 131 339
e 131 368
e 131 374
e 131 377
e 131 384
e 131 385
e 131 391
e 131 393
e 131 401
e 131 403
e 131 406
e 131 414
e 131 439
e 131 441
e 131 443
e 131 447
e 131 451
e 131 460
e 131 482
e 131 487
e 131 506
e 131 516
e 131 527
e 131 529
e 131 531
e 131 544
e 131 556
e 131 559
e 131 563
e 131 572
e 131 592
e 131 599
e 131 600
e 131 607
e 131 609
e 131 629
e 131 634
e 131 636
e 131 658
e 131 667
e 131 671
e 131 699
e 131 714
e 131 719
e 131 722
e 131 723
e 131 738
e 131 766
e 131 782
e 131 810
e 131 811
e 131 824
e 131 830
e 131 833
e 131 834
e 131 835
e 131 838
e 131 842
e 131 849
e 131 865
e 131 870
e 131 877
e 131 881
e 131 886
e 131 887
e 131 910
e 131 914
e 131 930
e 131 931
e 131 948
e 131 953
e 131 971
e 131 993
e 132 264
e 132 268
e 132 275
e 132 276
e 132 287
e 132 292
e 132 314
e 132 328
e 132 332
e 132 344
e 132 348
e 132 369
e 132 381
e 132 386
e 132 399
e 132 402
e 132 409
e 132 412
e 132 430
e 132 440
e 132 441
e 132 449
e 132 451
e 132 475
e 132 485
e 132 491
e 132 498
e 132 502
e 132 524
e 132 544
e 132 561
e 132 562
e 132 591
e 132 594
e 132 603
e 132 609
e 132 623
e 132 628
e 132 630
e 132 642
e 132 657
e 132 686
e 132 688
e 132 697
e 132 703
e 132 704
e 132 716
e 132 723
e 132 767
e 132 769
e 132 777
e 132 779
e 132 787
e 132 791
e 132 795
e 132 797
e 132 811
e 132 816
e 132 825
e 132 838
e 132 841
e 132 842
e 132 847
e 132 859
e 132 862
e 132 869
e 132 878
e 132 879
e 132 888
e 132 904
e 132 921
e 132 925
e 132 976
e 132 982
e 132 985
e 133 254
e 133 272
e 133 275
e 133 276
e 133 278
e 133 292
e 133 299
e 133 304
e 133 352
e 133 356
e 133 371
e 133 375
e 133 390
e 133 399
e 133 412
e 133 414
e 133 416
e 133 428
e 133 437
e 133 448
e 133 456
e 133 457
e 133 471
e 133 501
e 133 502
e 133 505
e 133 527
e 133 534
e 133 540
e 133 550
e 133 569
e 133 571
e 133 573
e 133 575
e 133 580
e 133 589
e 133 593
e 133 607
e 133 609
e 133 618
e 133 631
e 133 640
e 133 644
e 133 646
e 133 660
e 133 661
e 133 665
e 133 669
e 133 681
e 133 696
e 133 705
e 133 712
e 133 725
e 133 741
e 133 756
e 133 768
e 133 769
e 133 778
e 133 779
e 133 785
e 133 797
e 133 817
e 133 846
e 133 859
e 133 865
e 133 873
e 133 881
e 133 890
e 133 900
e 133 903
e 133 924
e 133 925
e 133 954
e 133 964
e 133 973
e 133 981
e 133 990
e 133 993
e 134 260
e 134 280
e 134 297
e 134 299
e 134 301
e 134 303
e 134 308
e 134 312
e 134 322
e 134 326
e 134 363
e 134 371
e 134 372
e 134 380
e 134 391
e 134 402
e 134 405
e 134 423
e 134 429
e 134 434
e 134 438
e 134 439
e 134 445
e 134 449
e 134 451
e 134 461
e 134 467
e 134 482
e 134 494
e 134 495
e 134 513
e 134 518
e 134 520
e 134 523
e 134 570
e 134 571
e 134 580
e 134 605
e 134 649
e 134 661
e 134 668
e 134 677
e 134 681
e 134 686
e 134 721
e 134 724
e 134 732
e 134 736
e 134 737
e 134 750
e 134 767
e 134 780
e 134 781
e 134 788
e 134 792
e 134 824
e 134 828
e 134 829
e 134 835
e 134 860
e 134 867
e 134 900
e 134 917
e 134 922
e 134 932
e 134 936
e 134 952
e 134 965
e 134 968
e 134 980
e 134 989
e 134 992
e 135 280
e 135 281
e 135 283
e 135 297
e 135 301
e 135 311
e 135 359
e 135 362
e 135 371
e 135 380
e 135 393
e 135 404
e 135 414
e 135 420
e 135 436
e 135 440
e 135 444
e 135 449
e 135 452
e 135 456
e 135 526
e 135 528
e 135 553
e 135 555
e 135 562
e 135 567
e 135 573
e 135 585
e 135 594
e 135 597
e 135 604
e 135 623
e 135 657
e 135 662
e 135 669
e 135 674
e 135 684
e 135 688
e 135 692
e 135 697
e 135 704
e 135 705
e 135 718
e 135 742
e 135 744
e 135 760
e 135 773
e 135 801
e 135 810
e 135 811
e 135 813
e 135 818
e 135 819
e 135 842
e 135 863
e 135 869
e 135 905
e 135 915
e 135 919
e 135 923
e 135 933
e 135 934
e 135 939
e 135 954
e 135 962
e 135 966
e 135 983
e 136 266
e 136 274
e 136 310
e 136 311
e 136 323
e 136 337
e 136 344
e 136 347
e 136 348
e 136 351
e 136 352
e 136 365
e 136 369
e 136 376
e 136 383
e 136 386
e 136 391
e 136 415
e 136 429
e 136 430
e 136 439
e 136 440
e 136 441
e 136 442
e 136 452
e 136 456
e 136 500
e 136 516
e 136 547
e 136 556
e 136 563
e 136 586
e 136 588
e 136 591
e 136 619
e 136 625
e 136 629
e 136 636
e 136 648
e 136 651
e 136 660
e 136 662
e 136 666
e 136 671
e 136 684
e 136 692
e 136 724
e 136 729
e 136 740
e 136 743
e 136 756
e 136 779
e 136 780
e 136 810
e 136 821
e 136 832
e 136 834
e 136 851
e 136 853
e 136 866
e 136 867
e 136 881
e 136 885
e 136 887
e 136 893
e 136 907
e 136 914
e 136 928
e 136 932
e 136 943
e 136 961
e 136 967
e 136 968
e 136 990
e 137 252
e 137 256
e 137 258
e 137 259
e 137 281
e 137 282
e 137 286
e 137 300
e 137 304
e 137 320
e 137 322
e 137 346
e 137 372
e 137 374
e 137 377
e 137 400
e 137 401
e 137 404
e 137 406
e 137 408
e 137 420
e 137 423
e 137 452
e 137 458
e 137 476
e 137 479
e 137 481
e 137 516
e 137 524
e 137 530
e 137 532
e 137 556
e 137 561
e 137 598
e 137 602
e 137 605
e 137 622
e 137 633
e 137 635
e 137 641
e 137 643
e 137 649
e 137 651
e 137 654
e 137 655
e 137 657
e 137 673
e 137 678
e 137 686
e 137 687
e 137 694
e 137 699
e 137 702
e 137 706
e 137 721
e 137 729
e 137 747
e 137 770
e 137 778
e 137 787
e 137 806
e 137 814
e 137 818
e 137 841
e 137 846
e 137 898
e 137 906
e 137 917
e 137 920
e 137 922
e 137 926
e 137 936
e 137 957
e 137 983
e 137 995
e 137 997
e 138 261
e 138 266
e 138 290
e 138 291
e 138 299
e 138 302
e 138 307
e 138 325
e 138 358
e 138 378
e 138 384
e 138 390
e 138 392
e 138 402
e 138 404
e 138 418
e 138 428
e 138 429
e 138 445
e 138 450
e 138 454
e 138 466
e 138 495
e 138 497
e 138 507
e 138 509
e 138 514
e 138 542
e 138 585
e 138 586
e 138 594
e 138 620
e 138 621
e 138 637
e 138 647
e 138 649
e 138 659
e 138 668
e 138 679
e 138 682
e 138 694
e 138 702
e 138 712
e 138 717
e 138 744
e 138 748
e 138 760
e 138 770
e 138 778
e 138 789
e 138 796
e 138 826
e 138 832
e 138 847
e 138 848
e 138 860
e 138 872
e 138 875
e 138 876
e 138 882
e 138 890
e 138 914
e 138 925
e 138 953
e 138 962
e 138 986
e 138 993
e 139 261
e 139 271
e 139 284
e 139 290
e 139 295
e 139 296
e 139 297
e 139 298
e 139 300
e 139 302
e 139 315
e 139 319
e 139 321
e 139 334
e 139 336
e 139 338
e 139 341
e 139 344
e 139 360
e 139 361
e 139 363
e 139 366
e 139 396
e 139 397
e 139 399
e 139 436
e 139 437
e 139 445
e 139 446
e 139 458
e 139 463
e 139 485
e 139 498
e 139 512
e 139 555
e 139 563
e 139 582
e 139 586
e 139 598
e 139 602
e 139 613
e 139 627
e 139 634
e 139 641
e 139 648
e 139 668
e 139 669
e 139 682
e 139 687
e 139 697
e 139 698
e 139 700
e 139 706
e 139 712
e 139 725
e 139 729
e 139 756
e 139 763
e 139 772
e 139 795
e 139 796
e 139 811
e 139 814
e 139 817
e 139 821
e 139 823
e 139 830
e 139 849
e 139 859
e 139 867
e 139 870
e 139 875
e 139 901
e 139 908
e 139 916
e 139 917
e 139 924
e 139 933
e 139 942
e 139 951
e 139 953
e 139 976
e 139 984
e 139 989
e 139 997
e 140 251
e 140 255
e 140 259
e 140 268
e 140 289
e 140 306
e 140 314
e 140 319
e 140 322
e 140 339
e 140 364
e 140 375
e 140 376
e 140 387
e 140 412
e 140 425
e 140 440
e 140 441
e 140 451
e 140 454
e 140 458
e 140 477
e 140 481
e 140 485
e 140 492
e 140 494
e 140 499
e 140 514
e 140 519
e 140 520
e 140 528
e 140 558
e 140 561
e 140 568
e 140 571
e 140 574
e 140 583
e 140 598
e 140 608
e 140 616
e 140 627
e 140 632
e 140 644
e 140 650
e 140 651
e 140 659
e 140 679
e 140 680
e 140 688
e 140 689
e 140 692
e 140 693
e 140 705
e 140 731
e 140 734
e 140 738
e 140 757
e 140 760
e 140 763
e 140 781
e 140 785
e 140 790
e 140 832
e 140 836
e 140 840
e 140 857
e 140 869
e 140 875
e 140 898
e 140 901
e 140 904
e 140 906
e 140 922
e 140 926
e 140 935
e 140 941
e 140 973
e 140 974
e 140 996
e 141 254
e 141 301
e 141 345
e 141 348
e 141 356
e 141 363
e 141 365
e 141 369
e 141 376
e 141 379
e 141 387
e 141 392
e 141 394
e 141 402
e 141 413
e 141 430
e 141 438
e 141 459
e 141 477
e 141 478
e 141 484
e 141 485
e 141 489
e 141 491
e 141 524
e 141 548
e 141 562
e 141 564
e 141 567
e 141 643
e 141 654
e 141 665
e 141 674
e 141 676
e 141 683
e 141 684
e 141 694
e 141 707
e 141 714
e 141 722
e 141 724
e 141 760
e 141 777
e 141 787
e 141 796
e 141 797
e 141 806
e 141 818
e 141 846
e 141 848
e 141 852
e 141 875
e 141 881
e 141 891
e 141 892
e 141 914
e 141 940
e 141 959
e 141 962
e 141 987
e 141 998
e 142 257
e 142 287
e 142 300
e 142 306
e 142 308
e 142 309
e 142 328
e 142 333
e 142 335
e 142 342
e 142 349
e 142 350
e 142 374
e 142 377
e 142 383
e 142 389
e 142 408
e 142 418
e 142 439
e 142 465
e 142 466
e 142 479
e 142 482
e 142 483
e 142 497
e 142 498
e 142 503
e 142 522
e 142 527
e 142 531
e 142 532
e 142 534
e 142 540
e 142 555
e 142 580
e 142 586
e 142 589
e 142 603
e 142 612
e 142 620
e 142 624
e 142 636
e 142 649
e 142 663
e 142 686
e 142 708
e 142 715
e 142 723
e 142 736
e 142 737
e 142 740
e 142 741
e 142 742
e 142 749
e 142 765
e 142 772
e 142 783
e 142 784
e 142 828
e 142 844
e 142 845
e 142 847
e 142 848
e 142 852
e 142 853
e 142 873
e 142 883
e 142 884
e 142 892
e 142 899
e 142 900
e 142 915
e 142 916
e 142 935
e 142 957
e 142 985
e 142 990
e 142 992
e 142 997
e 142 1000
e 143 259
e 143 261
e 143 264
e 143 289
e 143 290
e 143 302
e 143 307
e 143 310
e 143 330
e 143 361
e 143 366
e 143 379
e 143 383
e 143 384
e 143 391
e 143 401
e 143 407
e 143 423
e 143 442
e 143 451
e 143 453
e 143 455
e 143 458
e 143 459
e 143 476
e 143 480
e 143 484
e 143 503
e 143 508
e 143 527
e 143 537
e 143 552
e 143 594
e 143 610
e 143 648
e 143 649
e 143 656
e 143 665
e 143 672
e 143 679
e 143 700
e 143 716
e 143 733
e 143 736
e 143 737
e 143 752
e 143 757
e 143 765
e 143 767
e 143 772
e 143 773
e 143 775
e 143 780
e 143 782
e 143 813
e 143 816
e 143 817
e 143 837
e 143 854
e 143 861
e 143 868
e 143 880
e 143 886
e 143 896
e 143 898
e 143 901
e 143 903
e 143 908
e 143 911
e 143 950
e 143 955
e 143 987
e 143 993
e 144 257
e 144 261
e 144 278
e 144 282
e 144 292
e 144 293
e 144 313
e 144 318
e 144 323
e 144 325
e 144 327
e 144 337
e 144 354
e 144 355
e 144 366
e 144 370
e 144 375
e 144 379
e 144 389
e 144 403
e 144 429
e 144 444
e 144 450
e 144 452
e 144 453
e 144 458
e 144 470
e 144 471
e 144 476
e 144 480
e 144 501
e 144 504
e 144 505
e 144 509
e 144 513
e 144 521
e 144 524
e 144 526
e 144 536
e 144 537
e 144 541
e 144 548
e 144 556
e 144 567
e 144 575
e 144 600
e 144 611
e 144 613
e 144 614
e 144 644
e 144 650
e 144 657
e 144 669
e 144 692
e 144 699
e 144 715
e 144 749
e 144 756
e 144 758
e 144 789
e 144 790
e 144 792
e 144 803
e 144 823
e 144 827
e 144 833
e 144 859
e 144 864
e 144 882
e 144 884
e 144 894
e 144 903
e 144 919
e 144 927
e 144 936
e 144 937
e 144 941
e 144 943
e 144 947
e 144 954
e 144 956
e 144 958
e 144 979
e 144 981
e 144 992
e 144 1000
e 145 261
e 145 264
e 145 269
e 145 292
e 145 293
e 145 294
e 145 299
e 145 314
e 145 343
e 145 352
e 145 361
e 145 370
e 145 382
e 145 386
e 145 390
e 145 392
e 145 393
e 145 399
e 145 401
e 145 402
e 145 414
e 145 421
e 145 453
e 145 454
e 145 459
e 145 475
e 145 486
e 145 490
e 145 506
e 145 507
e 145 512
e 145 531
e 145 592
e 145 649
e 145 650
e 145 655
e 145 660
e 145 676
e 145 679
e 145 690
e 145 708
e 145 723
e 145 725
e 145 731
e 145 754
e 145 761
e 145 766
e 145 782
e 145 800
e 145 807
e 145 817
e 145 827
e 145 830
e 145 834
e 145 849
e 145 861
e 145 876
e 145 881
e 145 884
e 145 885
e 145 907
e 145 910
e 145 923
e 145 956
e 145 961
e 145 980
e 145 995
e 146 262
e 146 271
e 146 284
e 146 291
e 146 296
e 146 310
e 146 325
e 146 335
e 146 347
e 146 349
e 146 353
e 146 370
e 146 378
e 146 393
e 146 412
e 146 415
e 146 417
e 146 425
e 146 471
e 146 476
e 146 484
e 146 496
e 146 503
e 146 504
e 146 512
e 146 528
e 146 534
e 146 540
e 146 559
e 146 560
e 146 567
e 146 580
e 146 590
e 146 596
e 146 611
e 146 612
e 146 635
e 146 641
e 146 644
e 146 666
e 146 696
e 146 706
e 146 721
e 146 723
e 146 725
e 146 734
e 146 740
e 146 749
e 146 782
e 146 788
e 146 796
e 146 812
e 146 821
e 146 829
e 146 831
e 146 847
e 146 852
e 146 857
e 146 867
e 146 876
e 146 887
e 146 891
e 146 905
e 146 907
e 146 922
e 146 923
e 146 930
e 146 936
e 146 943
e 146 986
e 146 993
e 147 254
e 147 256
e 147 260
e 147 271
e 147 276
e 147 278
e 147 287
e 147 288
e 147 305
e 147 313
e 147 319
e 147 329
e 147 359
e 147 371
e 147 372
e 147 377
e 147 378
e 147 390
e 147 401
e 147 405
e 147 410
e 147 413
e 147 422
e 147 424
e 147 431
e 147 453
e 147 467
e 147 471
e 147 479
e 147 485
e 147 487
e 147 496
e 147 510
e 147 545
e 147 557
e 147 571
e 147 582
e 147 587
e 147 591
e 147 598
e 147 600
e 147 622
e 147 629
e 147 632
e 147 635
e 147 641
e 147 648
e 147 663
e 147 667
e 147 671
e 147 700
e 147 705
e 147 711
e 147 723
e 147 747
e 147 753
e 147 799
e 147 805
e 147 808
e 147 827
e 147 830
e 147 834
e 147 838
e 147 846
e 147 855
e 147 859
e 147 867
e 147 879
e 147 882
e 147 899
e 147 911
e 147 949
e 147 957
e 147 963
e 147 970
e 147 972
e 147 991
e 148 252
e 148 257
e 148 259
e 148 274
e 148 288
e 148 332
e 148 343
e 148 351
e 148 356
e 148 361
e 148 369
e 148 372
e 148 377
e 148 385
e 148 388
e 148 405
e 148 406
e 148 413
e 148 426
e 148 427
e 148 444
e 148 454
e 148 467
e 148 477
e 148 483
e 148 487
e 148 493
e 148 495
e 148 498
e 148 502
e 148 505
e 148 516
e 148 541
e 148 563
e 148 565
e 148 567
e 148 570
e 148 572
e 148 582
e 148 584
e 148 589
e 148 601
e 148 623
e 148 640
e 148 644
e 148 646
e 148 659
e 148 668
e 148 672
e 148 682
e 148 689
e 148 698
e 148 700
e 148 707
e 148 714
e 148 718
e 148 728
e 148 748
e 148 749
e 148 776
e 148 789
e 148 835
e 148 837
e 148 877
e 148 884
e 148 887
e 148 890
e 148 891
e 148 895
e 148 899
e 148 919
e 148 938
e 148 944
e 148 947
e 148 949
e 148 953
e 148 954
e 148 965
e 148 969
e 148 973
e 148 983
e 148 994
e 149 264
e 149 266
e 149 272
e 149 282
e 149 320
e 149 323
e 149 333
e 149 345
e 149 355
e 149 364
e 149 369
e 149 389
e 149 390
e 149 395
e 149 403
e 149 405
e 149 410
e 149 446
e 149 459
e 149 470
e 149 495
e 149 508
e 149 516
e 149 526
e 149 530
e 149 535
e 149 555
e 149 560
e 149 571
e 149 576
e 149 579
e 149 586
e 149 616
e 149 642
e 149 646
e 149 661
e 149 668
e 149 682
e 149 694
e 149 696
e 149 720
e 149 727
e 149 750
e 149 759
e 149 775
e 149 782
e 149 783
e 149 790
e 149 811
e 149 813
e 149 824
e 149 837
e 149 846
e 149 853
e 149 862
e 149 871
e 149 888
e 149 905
e 149 941
e 149 945
e 149 950
e 149 953
e 149 974
e 149 975
e 149 978
e 149 988
e 149 992
e 149 994
e 149 999
e 150 287
e 150 292
e 150 295
e 150 307
e 150 312
e 150 325
e 150 326
e 150 332
e 150 340
e 150 352
e 150 360
e 150 362
e 150 367
e 150 373
e 150 378
e 150 379
e 150 398
e 150 400
e 150 401
e 150 403
e 150 421
e 150 427
e 150 429
e 150 442
e 150 459
e 150 489
e 150 491
e 150 509
e 150 532
e 150 533
e 150 561
e 150 568
e 150 572
e 150 588
e 150 597
e 150 611
e 150 615
e 150 620
e 150 623
e 150 625
e 150 628
e 150 658
e 150 661
e 150 664
e 150 667
e 150 687
e 150 689
e 150 708
e 150 713
e 150 729
e 150 750
e 150 785
e 150 792
e 150 794
e 150 805
e 150 809
e 150 815
e 150 816
e 150 826
e 150 831
e 150 855
e 150 857
e 150 859
e 150 901
e 150 906
e 150 916
e 150 926
e 150 929
e 150 930
e 150 932
e 150 947
e 150 958
e 150 964
e 150 975
e 150 977
e 151 253
e 151 257
e 151 289
e 151 293
e 151 294
e 151 303
e 151 310
e 151 315
e 151 320
e 151 354
e 151 361
e 151 365
e 151 370
e 151 373
e 151 382
e 151 385
e 151 390
e 151 410
e 151 414
e 151 437
e 151 445
e 151 447
e 151 473
e 151 487
e 151 489
e 151 505
e 151 540
e 151 543
e 151 551
e 151 557
e 151 559
e 151 560
e 151 567
e 151 569
e 151 573
e 151 578
e 151 596
e 151 597
e 151 603
e 151 617
e 151 629
e 151 644
e 151 648
e 151 653
e 151 659
e 151 673
e 151 689
e 151 699
e 151 700
e 151 710
e 151 712
e 151 713
e 151 725
e 151 734
e 151 741
e 151 753
e 151 773
e 151 780
e 151 784
e 151 786
e 151 788
e 151 792
e 151 799
e 151 821
e 151 822
e 151 832
e 151 850
e 151 855
e 151 859
e 151 860
e 151 866
e 151 877
e 151 890
e 151 909
e 151 939
e 151 946
e 151 958
e 151 962
e 151 979
e 151 986
e 151 989
e 151 994
e 151 995
e 151 1000
e 152 254
e 152 255
e 152 258
e 152 260
e 152 265
e 152 279
e 152 295
e 152 308
e 152 312
e 152 321
e 152 326
e 152 329
e 152 349
e 152 351
e 152 352
e 152 371
e 152 380
e 152 386
e 152 395
e 152 403
e 152 404
e 152 415
e 152 423
e 152 424
e 152 456
e 152 458
e 152 476
e 152 479
e 152 510
e 152 512
e 152 516
e 152 517
e 152 528
e 152 537
e 152 557
e 152 570
e 152 577
e 152 584
e 152 593
e 152 602
e 152 607
e 152 625
e 152 646
e 152 678
e 152 688
e 152 704
e 152 709
e 152 723
e 152 738
e 152 745
e 152 746
e 152 774
e 152 784
e 152 795
e 152 834
e 152 836
e 152 839
e 152 856
e 152 872
e 152 876
e 152 877
e 152 889
e 152 894
e 152 897
e 152 898
e 152 900
e 152 932
e 152 935
e 152 951
e 152 956
e 152 985
e 152 998
e 152 999
e 153 251
e 153 256
e 153 271
e 153 318
e 153 326
e 153 328
e 153 335
e 153 337
e 153 342
e 153 346
e 153 382
e 153 399
e 153 400
e 153 401
e 153 403
e 153 406
e 153 415
e 153 460
e 153 461
e 153 481
e 153 482
e 153 492
e 153 497
e 153 499
e 153 510
e 153 515
e 153 519
e 153 552
e 153 553
e 153 567
e 153 578
e 153 588
e 153 591
e 153 593
e 153 595
e 153 597
e 153 633
e 153 637
e 153 645
e 153 689
e 153 693
e 153 695
e 153 700
e 153 701
e 153 703
e 153 710
e 153 718
e 153 748
e 153 810
e 153 815
e 153 843
e 153 846
e 153 849
e 153 853
e 153 855
e 153 858
e 153 873
e 153 890
e 153 892
e 153 906
e 153 915
e 153 918
e 153 948
e 153 966
e 153 967
e 153 976
e 153 977
e 153 993
e 153 999
e 154 268
e 154 279
e 154 282
e 154 285
e 154 302
e 154 306
e 154 310
e 154 311
e 154 314
e 154 379
e 154 384
e 154 390
e 154 393
e 154 396
e 154 404
e 154 406
e 154 411
e 154 416
e 154 422
e 154 433
e 154 441
e 154 446
e 154 456
e 154 463
e 154 464
e 154 479
e 154 485
e 154 502
e 154 509
e 154 535
e 154 556
e 154 582
e 154 620
e 154 682
e 154 687
e 154 692
e 154 695
e 154 714
e 154 715
e 154 719
e 154 728
e 154 729
e 154 732
e 154 753
e 154 763
e 154 776
e 154 784
e 154 795
e 154 799
e 154 803
e 154 819
e 154 829
e 154 856
e 154 863
e 154 873
e 154 882
e 154 893
e 154 909
e 154 912
e 154 920
e 154 926
e 154 933
e 154 935
e 154 936
e 154 940
e 154 946
e 154 968
e 154 979
e 154 986
e 154 1000
e 155 253
e 155 256
e 155 275
e 155 281
e 155 290
e 155 292
e 155 304
e 155 310
e 155 339
e 155 343
e 155 344
e 155 360
e 155 361
e 155 399
e 155 408
e 155 422
e 155 424
e 155 432
e 155 448
e 155 449
e 155 471
e 155 484
e 155 486
e 155 487
e 155 494
e 155 503
e 155 504
e 155 513
e 155 514
e 155 518
e 155 521
e 155 544
e 155 546
e 155 570
e 155 574
e 155 589
e 155 600
e 155 602
e 155 608
e 155 618
e 155 619
e 155 623
e 155 648
e 155 654
e 155 657
e 155 659
e 155 664
e 155 672
e 155 674
e 155 675
e 155 689
e 155 707
e 155 711
e 155 736
e 155 740
e 155 741
e 155 750
e 155 758
e 155 763
e 155 766
e 155 767
e 155 769
e 155 774
e 155 796
e 155 797
e 155 817
e 155 823
e 155 837
e 155 849
e 155 854
e 155 855
e 155 858
e 155 875
e 155 881
e 155 920
e 155 922
e 155 941
e 155 973
e 155 975
e 155 977
e 155 986
e 155 999
e 156 269
e 156 272
e 156 279
e 156 292
e 156 294
e 156 296
e 156 303
e 156 307
e 156 314
e 156 320
e 156 325
e 156 326
e 156 339
e 156 345
e 156 371
e 156 376
e 156 379
e 156 380
e 156 383
e 156 403
e 156 409
e 156 420
e 156 433
e 156 440
e 156 451
e 156 455
e 156 466
e 156 491
e 156 502
e 156 505
e 156 518
e 156 544
e 156 584
e 156 589
e 156 600
e 156 603
e 156 606
e 156 615
e 156 619
e 156 625
e 156 637
e 156 657
e 156 659
e 156 660
e 156 669
e 156 672
e 156 676
e 156 677
e 156 680
e 156 683
e 156 695
e 156 701
e 156 705
e 156 710
e 156 726
e 156 751
e 156 778
e 156 797
e 156 798
e 156 832
e 156 841
e 156 849
e 156 876
e 156 881
e 156 884
e 156 893
e 156 903
e 156 908
e 156 910
e 156 929
e 156 939
e 156 947
e 156 953
e 156 970
e 156 972
e 156 992
e 156 997
e 157 268
e 157 270
e 157 296
e 157 306
e 157 315
e 157 316
e 157 326
e 157 333
e 157 340
e 157 360
e 157 375
e 157 385
e 157 388
e 157 391
e 157 404
e 157 410
e 157 426
e 157 436
e 157 440
e 157 448
e 157 481
e 157 490
e 157 493
e 157 503
e 157 511
e 157 513
e 157 515
e 157 523
e 157 525
e 157 556
e 157 559
e 157 593
e 157 619
e 157 627
e 157 629
e 157 635
e 157 639
e 157 655
e 157 705
e 157 708
e 157 711
e 157 719
e 157 739
e 157 742
e 157 783
e 157 791
e 157 808
e 157 811
e 157 814
e 157 817
e 157 828
e 157 837
e 157 850
e 157 872
e 157 892
e 157 902
e 157 908
e 157 914
e 157 916
e 157 918
e 157 926
e 157 938
e 157 955
e 157 959
e 157 972
e 157 977
e 157 999
e 158 253
e 158 255
e 158 274
e 158 305
e 158 311
e 158 332
e 158 345
e 158 383
e 158 392
e 158 393
e 158 405
e 158 439
e 158 443
e 158 448
e 158 459
e 158 460
e 158 473
e 158 475
e 158 494
e 158 497
e 158 501
e 158 510
e 158 511
e 158 512
e 158 513
e 158 519
e 158 540
e 158 548
e 158 556
e 158 561
e 158 570
e 158 597
e 158 616
e 158 629
e 158 633
e 158 648
e 158 681
e 158 697
e 158 699
e 158 710
e 158 718
e 158 720
e 158 758
e 158 779
e 158 780
e 158 814
e 158 815
e 158 819
e 158 823
e 158 829
e 158 838
e 158 849
e 158 856
e 158 874
e 158 884
e 158 890
e 158 906
e 158 910
e 158 913
e 158 915
e 158 917
e 158 944
e 158 957
e 158 958
e 158 964
e 158 975
e 158 983
e 158 991
e 158 992
e 159 257
e 159 261
e 159 273
e 159 278
e 159 281
e 159 282
e 159 286
e 159 294
e 159 296
e 159 300
e 159 339
e 159 340
e 159 344
e 159 350
e 159 375
e 159 384
e 159 388
e 159 396
e 159 409
e 159 475
e 159 476
e 159 477
e 159 485
e 159 487
e 159 500
e 159 502
e 159 538
e 159 541
e 159 573
e 159 580
e 159 586
e 159 593
e 159 595
e 159 596
e 159 602
e 159 608
e 159 612
e 159 620
e 159 621
e 159 632
e 159 633
e 159 643
e 159 647
e 159 649
e 159 656
e 159 659
e 159 661
e 159 676
e 159 688
e 159 701
e 159 702
e 159 704
e 159 707
e 159 732
e 159 748
e 159 757
e 159 759
e 159 762
e 159 792
e 159 793
e 159 796
e 159 800
e 159 805
e 159 823
e 159 833
e 159 836
e 159 845
e 159 847
e 159 862
e 159 878
e 159 898
e 159 904
e 159 908
e 159 920
e 159 936
e 159 941
e 159 945
e 159 951
e 159 969
e 159 982
e 159 993
e 159 999
e 160 253
e 160 261
e 160 277
e 160 284
e 160 293
e 160 313
e 160 342
e 160 344
e 160 352
e 160 353
e 160 363
e 160 386
e 160 392
e 160 405
e 160 406
e 160 407
e 160 409
e 160 420
e 160 438
e 160 460
e 160 471
e 160 472
e 160 494
e 160 508
e 160 514
e 160 553
e 160 561
e 160 572
e 160 582
e 160 594
e 160 600
e 160 602
e 160 618
e 160 634
e 160 636
e 160 642
e 160 649
e 160 676
e 160 695
e 160 705
e 160 720
e 160 723
e 160 724
e 160 740
e 160 743
e 160 756
e 160 759
e 160 780
e 160 785
e 160 787
e 160 796
e 160 812
e 160 819
e 160 820
e 160 825
e 160 829
e 160 830
e 160 836
e 160 854
e 160 855
e 160 861
e 160 862
e 160 865
e 160 869
e 160 879
e 160 885
e 160 892
e 160 900
e 160 906
e 160 947
e 160 956
e 160 965
e 160 986
e 160 991
e 160 994
e 160 997
e 161 261
e 161 270
e 161 274
e 161 309
e 161 319
e 161 322
e 161 323
e 161 332
e 161 377
e 161 378
e 161 391
e 161 396
e 161 398
e 161 400
e 161 409
e 161 428
e 161 429
e 161 441
e 161 443
e 161 444
e 161 449
e 161 464
e 161 466
e 161 470
e 161 494
e 161 498
e 161 508
e 161 513
e 161 524
e 161 536
e 161 543
e 161 551
e 161 575
e 161 585
e 161 590
e 161 591
e 161 593
e 161 597
e 161 623
e 161 627
e 161 631
e 161 663
e 161 664
e 161 667
e 161 688
e 161 690
e 161 706
e 161 718
e 161 719
e 161 737
e 161 744
e 161 751
e 161 752
e 161 768
e 161 781
e 161 830
e 161 838
e 161 841
e 161 858
e 161 886
e 161 898
e 161 903
e 161 908
e 161 910
e 161 911
e 161 928
e 161 938
e 161 942
e 161 957
e 161 971
e 161 973
e 161 976
e 161 980
e 161 984
e 161 987
e 161 991
e 162 255
e 162 259
e 162 265
e 162 278
e 162 279
e 162 286
e 162 291
e 162 298
e 162 335
e 162 336
e 162 344
e 162 354
e 162 361
e 162 369
e 162 377
e 162 390
e 162 394
e 162 404
e 162 411
e 162 433
e 162 437
e 162 441
e 162 443
e 162 449
e 162 450
e 162 467
e 162 472
e 162 475
e 162 477
e 162 491
e 162 507
e 162 518
e 162 527
e 162 528
e 162 530
e 162 542
e 162 543
e 162 550
e 162 574
e 162 576
e 162 598
e 162 611
e 162 619
e 162 620
e 162 622
e 162 633
e 162 635
e 162 639
e 162 646
e 162 667
e 162 674
e 162 676
e 162 681
e 162 703
e 162 709
e 162 728
e 162 731
e 162 741
e 162 742
e 162 745
e 162 761
e 162 779
e 162 795
e 162 798
e 162 801
e 162 809
e 162 815
e 162 832
e 162 837
e 162 852
e 162 868
e 162 903
e 162 914
e 162 921
e 162 936
e 162 950
e 162 960
e 162 980
e 162 986
e 162 988
e 163 253
e 163 289
e 163 291
e 163 295
e 163 298
e 163 305
e 163 306
e 163 319
e 163 331
e 163 347
e 163 358
e 163 363
e 163 366
e 163 376
e 163 392
e 163 393
e 163 399
e 163 400
e 163 402
e 163 408
e 163 409
e 163 413
e 163 417
e 163 422
e 163 427
e 163 429
e 163 449
e 163 464
e 163 471
e 163 480
e 163 493
e 163 496
e 163 511
e 163 515
e 163 518
e 163 527
e 163 533
e 163 540
e 163 541
e 163 556
e 163 565
e 163 581
e 163 591
e 163 594
e 163 602
e 163 610
e 163 615
e 163 628
e 163 633
e 163 652
e 163 653
e 163 659
e 163 667
e 163 668
e 163 672
e 163 680
e 163 698
e 163 727
e 163 741
e 163 748
e 163 752
e 163 769
e 163 783
e 163 785
e 163 805
e 163 814
e 163 827
e 163 830
e 163 833
e 163 835
e 163 838
e 163 842
e 163 849
e 163 851
e 163 863
e 163 872
e 163 879
e 163 883
e 163 885
e 163 895
e 163 899
e 163 911
e 163 918
e 163 925
e 163 931
e 163 932
e 163 939
e 163 958
e 163 964
e 163 978
e 163 979
e 163 980
e 163 982
e 163 987
e 163 988
e 164 264
e 164 271
e 164 285
e 164 307
e 164 320
e 164 322
e 164 327
e 164 330
e 164 344
e 164 349
e 164 356
e 164 367
e 164 368
e 164 372
e 164 375
e 164 393
e 164 400
e 164 435
e 164 439
e 164 442
e 164 454
e 164 456
e 164 473
e 164 491
e 164 511
e 164 512
e 164 526
e 164 529
e 164 546
e 164 548
e 164 550
e 164 554
e 164 557
e 164 570
e 164 578
e 164 594
e 164 610
e 164 611
e 164 612
e 164 625
e 164 630
e 164 635
e 164 638
e 164 659
e 164 665
e 164 681
e 164 683
e 164 695
e 164 699
e 164 713
e 164 720
e 164 735
e 164 745
e 164 747
e 164 748
e 164 749
e 164 777
e 164 778
e 164 783
e 164 797
e 164 801
e 164 809
e 164 810
e 164 854
e 164 859
e 164 863
e 164 883
e 164 889
e 164 891
e 164 898
e 164 914
e 164 921
e 164 922
e 164 924
e 164 938
e 164 939
e 164 956
e 164 977
e 164 979
e 164 983
e 165 257
e 165 273
e 165 280
e 165 285
e 165 286
e 165 291
e 165 292
e 165 293
e 165 319
e 165 322
e 165 336
e 165 395
e 165 413
e 165 418
e 165 425
e 165 427
e 165 438
e 165 439
e 165 464
e 165 472
e 165 476
e 165 481
e 165 497
e 165 516
e 165 524
e 165 530
e 165 542
e 165 548
e 165 555
e 165 556
e 165 560
e 165 562
e 165 567
e 165 571
e 165 587
e 165 601
e 165 621
e 165 622
e 165 623
e 165 636
e 165 643
e 165 644
e 165 652
e 165 656
e 165 664
e 165 688
e 165 698
e 165 699
e 165 708
e 165 740
e 165 741
e 165 752
e 165 770
e 165 777
e 165 791
e 165 796
e 165 797
e 165 802
e 165 814
e 165 826
e 165 831
e 165 833
e 165 842
e 165 856
e 165 858
e 165 901
e 165 905
e 165 928
e 165 945
e 165 955
e 165 963
e 165 967
e 165 970
e 165 983
e 165 993
e 166 265
e 166 276
e 166 281
e 166 284
e 166 291
e 166 293
e 166 295
e 166 311
e 166 313
e 166 318
e 166 324
e 166 336
e 166 347
e 166 366
e 166 379
e 166 381
e 166 398
e 166 411
e 166 419
e 166 426
e 166 445
e 166 459
e 166 460
e 166 466
e 166 475
e 166 476
e 166 478
e 166 492
e 166 498
e 166 500
e 166 505
e 166 527
e 166 532
e 166 536
e 166 558
e 166 571
e 166 574
e 166 582
e 166 586
e 166 589
e 166 591
e 166 609
e 166 610
e 166 616
e 166 619
e 166 640
e 166 654
e 166 665
e 166 669
e 166 691
e 166 705
e 166 714
e 166 715
e 166 716
e 166 723
e 166 726
e 166 733
e 166 746
e 166 754
e 166 762
e 166 765
e 166 775
e 166 785
e 166 789
e 166 802
e 166 806
e 166 815
e 166 827
e 166 832
e 166 840
e 166 846
e 166 879
e 166 881
e 166 905
e 166 906
e 166 917
e 166 931
e 166 937
e 166 947
e 166 953
e 166 966
e 167 252
e 167 261
e 167 276
e 167 278
e 167 281
e 167 286
e 167 294
e 167 301
e 167 312
e 167 321
e 167 322
e 167 324
e 167 326
e 167 342
e 167 345
e 167 359
e 167 360
e 167 363
e 167 364
e 167 365
e 167 367
e 167 375
e 167 387
e 167 392
e 167 393
e 167 403
e 167 414
e 167 415
e 167 420
e 167 422
e 167 427
e 167 429
e 167 431
e 167 454
e 167 457
e 167 461
e 167 473
e 167 481
e 167 491
e 167 511
e 167 526
e 167 529
e 167 543
e 167 549
e 167 560
e 167 578
e 167 579
e 167 596
e 167 609
e 167 615
e 167 618
e 167 634
e 167 642
e 167 666
e 167 671
e 167 684
e 167 706
e 167 712
e 167 714
e 167 724
e 167 746
e 167 751
e 167 753
e 167 764
e 167 769
e 167 774
e 167 783
e 167 793
e 167 813
e 167 822
e 167 827
e 167 865
e 167 866
e 167 872
e 167 883
e 167 884
e 167 886
e 167 888
e 167 896
e 167 897
e 167 898
e 167 900
e 167 904
e 167 908
e 167 928
e 167 945
e 167 962
e 168 283
e 168 293
e 168 294
e 168 299
e 168 312
e 168 327
e 168 330
e 168 333
e 168 342
e 168 347
e 168 356
e 168 366
e 168 369
e 168 373
e 168 375
e 168 378
e 168 405
e 168 414
e 168 429
e 168 434
e 168 440
e 168 461
e 168 469
e 168 487
e 168 503
e 168 529
e 168 539
e 168 540
e 168 548
e 168 549
e 168 552
e 168 557
e 168 580
e 168 585
e 168 586
e 168 594
e 168 600
e 168 601
e 168 606
e 168 618
e 168 620
e 168 621
e 168 638
e 168 641
e 168 646
e 168 671
e 168 691
e 168 703
e 168 709
e 168 713
e 168 723
e 168 728
e 168 733
e 168 739
e 168 791
e 168 793
e 168 801
e 168 803
e 168 804
e 168 823
e 168 824
e 168 828
e 168 835
e 168 837
e 168 885
e 168 890
e 168 893
e 168 898
e 168 905
e 168 910
e 168 911
e 168 929
e 168 937
e 168 946
e 168 949
e 168 953
e 168 954
e 168 963
e 168 965
e 168 994
e 169 252
e 169 257
e 169 258
e 169 281
e 169 283
e 169 290
e 169 294
e 169 296
e 169 298
e 169 310
e 169 311
e 169 319
e 169 329
e 169 379
e 169 384
e 169 393
e 169 413
e 169 431
e 169 439
e 169 443
e 169 450
e 169 461
e 169 464
e 169 476
e 169 494
e 169 500
e 169 502
e 169 529
e 169 530
e 169 531
e 169 533
e 169 534
e 169 559
e 169 573
e 169 598
e 169 615
e 169 616
e 169 628
e 169 630
e 169 631
e 169 652
e 169 663
e 169 678
e 169 683
e 169 691
e 169 703
e 169 720
e 169 721
e 169 727
e 169 743
e 169 751
e 169 755
e 169 763
e 169 772
e 169 774
e 169 779
e 169 783
e 169 785
e 169 788
e 169 806
e 169 818
e 169 827
e 169 836
e 169 869
e 169 872
e 169 884
e 169 886
e 169 887
e 169 898
e 169 907
e 169 908
e 169 909
e 169 919
e 169 925
e 169 928
e 169 946
e 169 954
e 169 969
e 169 973
e 169 993
e 170 252
e 170 280
e 170 281
e 170 308
e 170 310
e 170 311
e 170 334
e 170 335
e 170 340
e 170 341
e 170 343
e 170 356
e 170 369
e 170 376
e 170 377
e 170 388
e 170 390
e 170 396
e 170 400
e 170 402
e 170 412
e 170 417
e 170 427
e 170 443
e 170 450
e 170 452
e 170 456
e 170 458
e 170 461
e 170 462
e 170 472
e 170 553
e 170 582
e 170 585
e 170 598
e 170 600
e 170 602
e 170 616
e 170 621
e 170 628
e 170 630
e 170 633
e 170 635
e 170 639
e 170 641
e 170 642
e 170 661
e 170 662
e 170 663
e 170 703
e 170 708
e 170 711
e 170 717
e 170 722
e 170 737
e 170 738
e 170 743
e 170 744
e 170 752
e 170 757
e 170 788
e 170 817
e 170 840
e 170 847
e 170 857
e 170 877
e 170 883
e 170 890
e 170 894
e 170 899
e 170 904
e 170 909
e 170 911
e 170 914
e 170 919
e 170 981
e 170 991
e 170 992
e 171 266
e 171 268
e 171 275
e 171 282
e 171 291
e 171 306
e 171 310
e 171 315
e 171 325
e 171 339
e 171 344
e 171 381
e 171 385
e 171 387
e 171 397
e 171 410
e 171 415
e 171 417
e 171 427
e 171 435
e 171 442
e 171 456
e 171 462
e 171 466
e 171 472
e 171 485
e 171 491
e 171 498
e 171 505
e 171 509
e 171 530
e 171 548
e 171 550
e 171 566
e 171 567
e 171 613
e 171 615
e 171 622
e 171 627
e 171 628
e 171 641
e 171 664
e 171 670
e 171 680
e 171 685
e 171 687
e 171 690
e 171 704
e 171 711
e 171 716
e 171 717
e 171 735
e 171 739
e 171 740
e 171 743
e 171 744
e 171 751
e 171 755
e 171 756
e 171 783
e 171 784
e 171 785
e 171 788
e 171 790
e 171 808
e 171 829
e 171 832
e 171 833
e 171 835
e 171 846
e 171 857
e 171 858
e 171 892
e 171 912
e 171 913
e 171 920
e 171 921
e 171 930
e 171 939
e 171 943
e 171 945
e 171 954
e 171 956
e 171 962
e 171 966
e 171 972
e 171 997
e 172 251
e 172 252
e 172 253
e 172 261
e 172 279
e 172 280
e 172 290
e 172 291
e 172 310
e 172 313
e 172 314
e 172 327
e 172 349
e 172 355
e 172 363
e 172 364
e 172 367
e 172 368
e 172 376
e 172 378
e 172 395
e 172 424
e 172 432
e 172 445
e 172 455
e 172 462
e 172 469
e 172 484
e 172 514
e 172 520
e 172 527
e 172 531
e 172 563
e 172 566
e 172 568
e 172 592
e 172 608
e 172 621
e 172 624
e 172 634
e 172 643
e 172 659
e 172 675
e 172 683
e 172 688
e 172 694
e 172 708
e 172 715
e 172 718
e 172 727
e 172 746
e 172 770
e 172 783
e 172 787
e 172 792
e 172 793
e 172 795
e 172 811
e 172 816
e 172 825
e 172 826
e 172 832
e 172 836
e 172 839
e 172 844
e 172 863
e 172 878
e 172 880
e 172 889
e 172 895
e 172 912
e 172 932
e 172 943
e 172 953
e 172 955
e 172 958
e 172 971
e 172 982
e 172 984
e 172 985
e 172 986
e 172 997
e 173 260
e 173 263
e 173 264
e 173 266
e 173 283
e 173 297
e 173 312
e 173 317
e 173 328
e 173 338
e 173 345
e 173 359
e 173 369
e 173 370
e 173 379
e 173 384
e 173 399
e 173 405
e 173 415
e 173 416
e 173 422
e 173 439
e 173 442
e 173 460
e 173 475
e 173 483
e 173 491
e 173 496
e 173 512
e 173 522
e 173 523
e 173 524
e 173 532
e 173 568
e 173 576
e 173 577
e 173 580
e 173 592
e 173 595
e 173 601
e 173 607
e 173 612
e 173 623
e 173 624
e 173 641
e 173 686
e 173 698
e 173 699
e 173 712
e 173 715
e 173 720
e 173 723
e 173 741
e 173 746
e 173 748
e 173 749
e 173 751
e 173 759
e 173 768
e 173 775
e 173 778
e 173 791
e 173 805
e 173 806
e 173 829
e 173 831
e 173 833
e 173 842
e 173 850
e 173 857
e 173 861
e 173 867
e 173 870
e 173 879
e 173 889
e 173 895
e 173 896
e 173 912
e 173 925
e 173 926
e 173 943
e 173 949
e 173 951
e 173 969
e 173 972
e 173 991
e 174 263
e 174 268
e 174 269
e 174 278
e 174 296
e 174 305
e 174 319
e 174 332
e 174 339
e 174 344
e 174 351
e 174 355
e 174 356
e 174 363
e 174 364
e 174 388
e 174 389
e 174 393
e 174 400
e 174 401
e 174 407
e 174 436
e 174 443
e 174 468
e 174 487
e 174 494
e 174 497
e 174 518
e 174 531
e 174 548
e 174 549
e 174 558
e 174 560
e 174 564
e 174 574
e 174 582
e 174 591
e 174 609
e 174 643
e 174 646
e 174 668
e 174 682
e 174 692
e 174 694
e 174 696
e 174 698
e 174 706
e 174 713
e 174 719
e 174 733
e 174 740
e 174 741
e 174 744
e 174 752
e 174 755
e 174 764
e 174 767
e 174 783
e 174 784
e 174 795
e 174 796
e 174 798
e 174 812
e 174 821
e 174 831
e 174 837
e 174 844
e 174 847
e 174 884
e 174 885
e 174 893
e 174 901
e 174 905
e 174 908
e 174 914
e 174 916
e 174 927
e 174 933
e 174 948
e 174 951
e 174 959
e 174 965
e 174 966
e 174 968
e 174 975
e 174 977
e 174 980
e 174 981
e 174 986
e 174 989
e 175 260
e 175 264
e 175 269
e 175 280
e 175 284
e 175 313
e 175 324
e 175 325
e 175 326
e 175 330
e 175 344
e 175 378
e 175 394
e 175 399
e 175 406
e 175 436
e 175 447
e 175 457
e 175 458
e 175 462
e 175 464
e 175 468
e 175 476
e 175 491
e 175 493
e 175 501
e 175 527
e 175 531
e 175 542
e 175 556
e 175 558
e 175 568
e 175 577
e 175 578
e 175 580
e 175 604
e 175 605
e 175 613
e 175 628
e 175 655
e 175 662
e 175 675
e 175 678
e 175 688
e 175 708
e 175 711
e 175 712
e 175 714
e 175 726
e 175 747
e 175 755
e 175 759
e 175 762
e 175 789
e 175 791
e 175 805
e 175 806
e 175 808
e 175 814
e 175 818
e 175 822
e 175 824
e 175 832
e 175 834
e 175 843
e 175 849
e 175 852
e 175 853
e 175 860
e 175 862
e 175 864
e 175 877
e 175 878
e 175 900
e 175 912
e 175 922
e 175 930
e 175 943
e 175 967
e 175 975
e 175 981
e 175 997
e 176 253
e 176 267
e 176 274
e 176 310
e 176 319
e 176 321
e 176 327
e 176 347
e 176 348
e 176 362
e 176 364
e 176 366
e 176 370
e 176 387
e 176 393
e 176 401
e 176 407
e 176 412
e 176 456
e 176 464
e 176 465
e 176 469
e 176 473
e 176 481
e 176 490
e 176 499
e 176 511
e 176 526
e 176 536
e 176 547
e 176 549
e 176 560
e 176 564
e 176 572
e 176 583
e 176 585
e 176 587
e 176 594
e 176 598
e 176 609
e 176 619
e 176 643
e 176 656
e 176 663
e 176 672
e 176 680
e 176 695
e 176 709
e 176 718
e 176 727
e 176 729
e 176 737
e 176 756
e 176 762
e 176 775
e 176 791
e 176 792
e 176 808
e 176 825
e 176 863
e 176 875
e 176 884
e 176 893
e 176 899
e 176 907
e 176 913
e 176 922
e 176 927
e 176 930
e 176 947
e 176 950
e 176 958
e 176 974
e 176 982
e 176 983
e 176 991
e 176 994
e 176 998
e 177 265
e 177 277
e 177 283
e 177 289
e 177 290
e 177 311
e 177 317
e 177 338
e 177 342
e 177 363
e 177 364
e 177 374
e 177 376
e 177 387
e 177 391
e 177 406
e 177 410
e 177 419
e 177 425
e 177 454
e 177 483
e 177 497
e 177 506
e 177 507
e 177 518
e 177 521
e 177 532
e 177 534
e 177 539
e 177 556
e 177 568
e 177 581
e 177 604
e 177 622
e 177 628
e 177 669
e 177 680
e 177 712
e 177 719
e 177 726
e 177 741
e 177 772
e 177 773
e 177 778
e 177 795
e 177 797
e 177 812
e 177 825
e 177 839
e 177 858
e 177 872
e 177 893
e 177 907
e 177 915
e 177 920
e 177 951
e 177 954
e 177 959
e 177 961
e 177 988
e 177 999
e 178 257
e 178 263
e 178 269
e 178 293
e 178 298
e 178 318
e 178 329
e 178 359
e 178 367
e 178 371
e 178 375
e 178 380
e 178 386
e 178 394
e 178 395
e 178 401
e 178 406
e 178 426
e 178 432
e 178 441
e 178 444
e 178 450
e 178 459
e 178 486
e 178 493
e 178 495
e 178 505
e 178 507
e 178 517
e 178 524
e 178 539
e 178 540
e 178 569
e 178 574
e 178 600
e 178 613
e 178 620
e 178 632
e 178 639
e 178 647
e 178 668
e 178 669
e 178 674
e 178 675
e 178 691
e 178 693
e 178 699
e 178 702
e 178 708
e 178 715
e 178 718
e 178 764
e 178 791
e 178 794
e 178 797
e 178 801
e 178 865
e 178 867
e 178 871
e 178 879
e 178 887
e 178 892
e 178 893
e 178 909
e 178 916
e 178 923
e 178 939
e 178 940
e 178 945
e 178 956
e 178 964
e 178 967
e 178 982
e 178 987
e 178 989
e 178 995
e 179 253
e 179 271
e 179 279
e 179 290
e 179 293
e 179 304
e 179 305
e 179 311
e 179 321
e 179 330
e 179 345
e 179 351
e 179 353
e 179 361
e 179 364
e 179 365
e 179 372
e 179 387
e 179 395
e 179 396
e 179 443
e 179 444
e 179 451
e 179 453
e 179 455
e 179 464
e 179 468
e 179 472
e 179 484
e 179 498
e 179 499
e 179 504
e 179 505
e 179 518
e 179 524
e 179 527
e 179 535
e 179 538
e 179 540
e 179 552
e 179 556
e 179 562
e 179 565
e 179 568
e 179 570
e 179 575
e 179 577
e 179 593
e 179 606
e 179 612
e 179 632
e 179 636
e 179 654
e 179 659
e 179 668
e 179 673
e 179 682
e 179 692
e 179 696
e 179 701
e 179 713
e 179 716
e 179 729
e 179 731
e 179 736
e 179 739
e 179 741
e 179 753
e 179 756
e 179 768
e 179 780
e 179 785
e 179 789
e 179 793
e 179 803
e 179 820
e 179 850
e 179 854
e 179 855
e 179 864
e 179 875
e 179 892
e 179 904
e 179 933
e 179 979
e 179 986
e 179 989
e 179 990
e 179 996
e 180 262
e 180 264
e 180 286
e 180 291
e 180 293
e 180 305
e 180 325
e 180 328
e 180 330
e 180 336
e 180 358
e 180 373
e 180 386
e 180 391
e 180 392
e 180 433
e 180 446
e 180 447
e 180 462
e 180 475
e 180 478
e 180 488
e 180 503
e 180 507
e 180 513
e 180 535
e 180 553
e 180 555
e 180 566
e 180 573
e 180 575
e 180 587
e 180 590
e 180 602
e 180 623
e 180 631
e 180 633
e 180 635
e 180 636
e 180 637
e 180 652
e 180 659
e 180 660
e 180 672
e 180 676
e 180 701
e 180 705
e 180 707
e 180 713
e 180 714
e 180 740
e 180 743
e 180 767
e 180 783
e 180 812
e 180 817
e 180 823
e 180 829
e 180 852
e 180 853
e 180 872
e 180 876
e 180 888
e 180 893
e 180 899
e 180 928
e 180 963
e 180 982
e 180 984
e 180 991
e 181 266
e 181 272
e 181 277
e 181 282
e 181 286
e 181 290
e 181 300
e 181 310
e 181 314
e 181 326
e 181 336
e 181 339
e 181 348
e 181 365
e 181 373
e 181 376
e 181 383
e 181 386
e 181 398
e 181 399
e 181 400
e 181 416
e 181 417
e 181 437
e 181 438
e 181 444
e 181 461
e 181 468
e 181 469
e 181 470
e 181 472
e 181 495
e 181 518
e 181 519
e 181 538
e 181 554
e 181 557
e 181 560
e 181 596
e 181 597
e 181 608
e 181 621
e 181 625
e 181 635
e 181 640
e 181 659
e 181 660
e 181 664
e 181 685
e 181 698
e 181 699
e 181 700
e 181 703
e 181 718
e 181 744
e 181 749
e 181 751
e 181 794
e 181 796
e 181 802
e 181 806
e 181 818
e 181 819
e 181 824
e 181 876
e 181 883
e 181 886
e 181 895
e 181 897
e 181 899
e 181 908
e 181 912
e 181 915
e 181 922
e 181 931
e 181 956
e 181 957
e 181 963
e 181 967
e 181 975
e 181 978
e 181 984
e 181 986
e 181 997
e 181 1000
e 182 253
e 182 273
e 182 307
e 182 341
e 182 360
e 182 367
e 182 370
e 182 377
e 182 391
e 182 392
e 182 412
e 182 421
e 182 437
e 182 441
e 182 462
e 182 471
e 182 473
e 182 477
e 182 532
e 182 538
e 182 554
e 182 568
e 182 589
e 182 611
e 182 628
e 182 654
e 182 676
e 182 689
e 182 692
e 182 699
e 182 708
e 182 711
e 182 712
e 182 724
e 182 726
e 182 727
e 182 734
e 182 736
e 182 745
e 182 746
e 182 752
e 182 770
e 182 780
e 182 782
e 182 783
e 182 791
e 182 800
e 182 802
e 182 803
e 182 830
e 182 843
e 182 847
e 182 851
e 182 858
e 182 861
e 182 876
e 182 877
e 182 880
e 182 898
e 182 901
e 182 904
e 182 905
e 182 909
e 182 915
e 182 922
e 182 927
e 182 929
e 182 948
e 182 952
e 182 969
e 182 990
e 183 257
e 183 260
e 183 270
e 183 276
e 183 280
e 183 289
e 183 301
e 183 302
e 183 308
e 183 322
e 183 329
e 183 352
e 183 354
e 183 359
e 183 380
e 183 409
e 183 417
e 183 433
e 183 437
e 183 447
e 183 469
e 183 473
e 183 477
e 183 482
e 183 496
e 183 501
e 183 504
e 183 521
e 183 531
e 183 532
e 183 541
e 183 550
e 183 562
e 183 585
e 183 594
e 183 597
e 183 606
e 183 622
e 183 623
e 183 626
e 183 628
e 183 629
e 183 633
e 183 648
e 183 661
e 183 679
e 183 706
e 183 707
e 183 708
e 183 712
e 183 729
e 183 742
e 183 755
e 183 760
e 183 773
e 183 775
e 183 776
e 183 796
e 183 797
e 183 808
e 183 810
e 183 821
e 183 826
e 183 830
e 183 844
e 183 860
e 183 870
e 183 876
e 183 879
e 183 912
e 183 928
e 183 934
e 183 939
e 183 959
e 183 960
e 183 974
e 184 253
e 184 270
e 184 274
e 184 279
e 184 281
e 184 305
e 184 309
e 184 328
e 184 346
e 184 347
e 184 348
e 184 354
e 184 360
e 184 380
e 184 389
e 184 394
e 184 414
e 184 416
e 184 423
e 184 433
e 184 440
e 184 445
e 184 453
e 184 464
e 184 468
e 184 488
e 184 492
e 184 502
e 184 514
e 184 515
e 184 526
e 184 527
e 184 544
e 184 555
e 184 560
e 184 565
e 184 571
e 184 577
e 184 583
e 184 612
e 184 619
e 184 631
e 184 644
e 184 650
e 184 653
e 184 655
e 184 657
e 184 658
e 184 659
e 184 673
e 184 683
e 184 711
e 184 712
e 184 718
e 184 733
e 184 737
e 184 796
e 184 802
e 184 805
e 184 810
e 184 822
e 184 841
e 184 848
e 184 850
e 184 857
e 184 862
e 184 864
e 184 867
e 184 896
e 184 916
e 184 938
e 184 939
e 184 991
e 185 261
e 185 271
e 185 283
e 185 297
e 185 298
e 185 299
e 185 300
e 185 311
e 185 317
e 185 326
e 185 327
e 185 328
e 185 346
e 185 356
e 185 363
e 185 370
e 185 376
e 185 380
e 185 404
e 185 416
e 185 425
e 185 428
e 185 435
e 185 441
e 185 442
e 185 444
e 185 458
e 185 465
e 185 469
e 185 478
e 185 481
e 185 489
e 185 495
e 185 547
e 185 583
e 185 590
e 185 626
e 185 631
e 185 642
e 185 643
e 185 644
e 185 649
e 185 651
e 185 662
e 185 689
e 185 695
e 185 703
e 185 711
e 185 718
e 185 736
e 185 739
e 185 758
e 185 801
e 185 806
e 185 813
e 185 834
e 185 842
e 185 865
e 185 873
e 185 876
e 185 878
e 185 904
e 185 926
e 185 931
e 185 957
e 185 958
e 185 981
e 185 995
e 185 997
e 185 998
e 186 254
e 186 260
e 186 310
e 186 320
e 186 324
e 186 333
e 186 359
e 186 361
e 186 369
e 186 371
e 186 383
e 186 388
e 186 398
e 186 407
e 186 431
e 186 434
e 186 446
e 186 467
e 186 477
e 186 487
e 186 503
e 186 504
e 186 510
e 186 514
e 186 524
e 186 526
e 186 530
e 186 532
e 186 542
e 186 552
e 186 558
e 186 560
e 186 576
e 186 587
e 186 591
e 186 604
e 186 611
e 186 618
e 186 640
e 186 645
e 186 662
e 186 664
e 186 667
e 186 673
e 186 675
e 186 677
e 186 678
e 186 690
e 186 692
e 186 702
e 186 706
e 186 707
e 186 716
e 186 726
e 186 733
e 186 742
e 186 749
e 186 758
e 186 765
e 186 780
e 186 792
e 186 801
e 186 818
e 186 828
e 186 834
e 186 837
e 186 850
e 186 853
e 186 870
e 186 898
e 186 910
e 186 922
e 186 933
e 186 953
e 186 959
e 186 976
e 187 265
e 187 266
e 187 276
e 187 300
e 187 311
e 187 319
e 187 326
e 187 329
e 187 331
e 187 335
e 187 341
e 187 346
e 187 349
e 187 354
e 187 359
e 187 360
e 187 365
e 187 369
e 187 381
e 187 393
e 187 395
e 187 397
e 187 407
e 187 411
e 187 441
e 187 449
e 187 482
e 187 502
e 187 504
e 187 515
e 187 518
e 187 519
e 187 524
e 187 530
e 187 533
e 187 534
e 187 541
e 187 551
e 187 560
e 187 562
e 187 574
e 187 579
e 187 584
e 187 601
e 187 623
e 187 641
e 187 645
e 187 651
e 187 659
e 187 660
e 187 674
e 187 685
e 187 699
e 187 717
e 187 722
e 187 731
e 187 734
e 187 749
e 187 751
e 187 755
e 187 760
e 187 766
e 187 768
e 187 797
e 187 808
e 187 814
e 187 819
e 187 828
e 187 830
e 187 860
e 187 883
e 187 896
e 187 906
e 187 909
e 187 910
e 187 927
e 187 940
e 187 946
e 187 957
e 187 970
e 187 971
e 187 992
e 188 255
e 188 260
e 188 268
e 188 273
e 188 280
e 188 282
e 188 311
e 188 313
e 188 319
e 188 330
e 188 333
e 188 337
e 188 357
e 188 362
e 188 363
e 188 375
e 188 398
e 188 401
e 188 405
e 188 407
e 188 411
e 188 432
e 188 476
e 188 486
e 188 496
e 188 527
e 188 555
e 188 556
e 188 561
e 188 563
e 188 581
e 188 601
e 188 605
e 188 612
e 188 618
e 188 627
e 188 632
e 188 640
e 188 662
e 188 694
e 188 711
e 188 725
e 188 728
e 188 756
e 188 758
e 188 763
e 188 770
e 188 771
e 188 780
e 188 791
e 188 797
e 188 798
e 188 800
e 188 802
e 188 804
e 188 806
e 188 821
e 188 826
e 188 845
e 188 852
e 188 854
e 188 855
e 188 879
e 188 888
e 188 894
e 188 895
e 188 899
e 188 912
e 188 917
e 188 931
e 188 955
e 188 980
e 188 983
e 189 260
e 189 269
e 189 293
e 189 304
e 189 312
e 189 313
e 189 343
e 189 344
e 189 356
e 189 358
e 189 359
e 189 375
e 189 376
e 189 383
e 189 384
e 189 398
e 189 399
e 189 406
e 189 424
e 189 430
e 189 443
e 189 448
e 189 457
e 189 468
e 189 479
e 189 490
e 189 508
e 189 516
e 189 561
e 189 569
e 189 582
e 189 597
e 189 605
e 189 611
e 189 626
e 189 627
e 189 637
e 189 643
e 189 651
e 189 658
e 189 666
e 189 677
e 189 680
e 189 689
e 189 706
e 189 747
e 189 755
e 189 757
e 189 799
e 189 807
e 189 816
e 189 824
e 189 830
e 189 832
e 189 844
e 189 852
e 189 856
e 189 861
e 189 871
e 189 872
e 189 883
e 189 888
e 189 907
e 189 928
e 189 939
e 189 951
e 189 974
e 189 975
e 189 976
e 189 983
e 189 984
e 189 988
e 189 990
e 189 996
e 190 252
e 190 286
e 190 313
e 190 337
e 190 339
e 190 355
e 190 356
e 190 366
e 190 375
e 190 382
e 190 399
e 190 406
e 190 416
e 190 424
e 190 455
e 190 463
e 190 473
e 190 479
e 190 515
e 190 521
e 190 523
e 190 529
e 190 532
e 190 537
e 190 557
e 190 575
e 190 576
e 190 583
e 190 594
e 190 600
e 190 607
e 190 623
e 190 630
e 190 654
e 190 663
e 190 664
e 190 665
e 190 666
e 190 682
e 190 699
e 190 713
e 190 720
e 190 751
e 190 752
e 190 759
e 190 784
e 190 791
e 190 819
e 190 828
e 190 830
e 190 831
e 190 839
e 190 847
e 190 859
e 190 862
e 190 863
e 190 877
e 190 878
e 190 893
e 190 898
e 190 935
e 190 957
e 190 958
e 190 959
e 190 978
e 190 983
e 190 984
e 191 255
e 191 257
e 191 258
e 191 259
e 191 271
e 191 275
e 191 296
e 191 312
e 191 316
e 191 327
e 191 338
e 191 361
e 191 363
e 191 400
e 191 407
e 191 417
e 191 419
e 191 421
e 191 422
e 191 443
e 191 449
e 191 472
e 191 488
e 191 505
e 191 520
e 191 530
e 191 531
e 191 551
e 191 562
e 191 569
e 191 593
e 191 597
e 191 604
e 191 607
e 191 610
e 191 611
e 191 621
e 191 624
e 191 629
e 191 651
e 191 654
e 191 673
e 191 677
e 191 678
e 191 680
e 191 686
e 191 707
e 191 719
e 191 720
e 191 723
e 191 731
e 191 742
e 191 754
e 191 755
e 191 757
e 191 761
e 191 767
e 191 794
e 191 795
e 191 799
e 191 801
e 191 806
e 191 811
e 191 819
e 191 824
e 191 833
e 191 840
e 191 841
e 191 866
e 191 879
e 191 892
e 191 894
e 191 900
e 191 908
e 191 910
e 191 916
e 191 936
e 191 970
e 191 987
e 191 994
e 191 998
e 191 999
e 191 1000
e 192 253
e 192 268
e 192 282
e 192 296
e 192 302
e 192 310
e 192 311
e 192 336
e 192 338
e 192 350
e 192 358
e 192 366
e 192 380
e 192 402
e 192 407
e 192 413
e 192 420
e 192 430
e 192 435
e 192 453
e 192 458
e 192 468
e 192 485
e 192 490
e 192 509
e 192 514
e 192 536
e 192 551
e 192 552
e 192 578
e 192 593
e 192 594
e 192 595
e 192 608
e 192 616
e 192 628
e 192 645
e 192 660
e 192 664
e 192 688
e 192 690
e 192 702
e 192 711
e 192 715
e 192 727
e 192 753
e 192 760
e 192 769
e 192 805
e 192 806
e 192 808
e 192 820
e 192 825
e 192 828
e 192 829
e 192 835
e 192 848
e 192 894
e 192 922
e 192 927
e 192 935
e 192 955
e 192 973
e 192 981
e 192 989
e 192 994
e 193 268
e 193 270
e 193 272
e 193 300
e 193 308
e 193 325
e 193 334
e 193 336
e 193 344
e 193 349
e 193 369
e 193 396
e 193 432
e 193 440
e 193 458
e 193 477
e 193 490
e 193 501
e 193 525
e 193 527
e 193 529
e 193 541
e 193 553
e 193 554
e 193 560
e 193 565
e 193 570
e 193 586
e 193 594
e 193 595
e 193 612
e 193 628
e 193 630
e 193 656
e 193 670
e 193 673
e 193 689
e 193 696
e 193 703
e 193 719
e 193 724
e 193 728
e 193 755
e 193 756
e 193 758
e 193 766
e 193 775
e 193 783
e 193 784
e 193 805
e 193 812
e 193 829
e 193 831
e 193 836
e 193 837
e 193 843
e 193 846
e 193 852
e 193 860
e 193 877
e 193 882
e 193 889
e 193 896
e 193 919
e 193 921
e 193 924
e 193 926
e 193 934
e 193 948
e 193 954
e 193 956
e 193 963
e 193 980
e 193 997
e 194 252
e 194 263
e 194 264
e 194 288
e 194 298
e 194 307
e 194 313
e 194 316
e 194 371
e 194 377
e 194 378
e 194 382
e 194 385
e 194 397
e 194 399
e 194 408
e 194 432
e 194 433
e 194 444
e 194 448
e 194 464
e 194 472
e 194 492
e 194 495
e 194 502
e 194 505
e 194 515
e 194 517
e 194 522
e 194 529
e 194 531
e 194 539
e 194 547
e 194 552
e 194 565
e 194 571
e 194 573
e 194 599
e 194 633
e 194 639
e 194 647
e 194 671
e 194 682
e 194 686
e 194 719
e 194 739
e 194 740
e 194 744
e 194 748
e 194 754
e 194 755
e 194 780
e 194 784
e 194 791
e 194 804
e 194 828
e 194 830
e 194 832
e 194 838
e 194 846
e 194 857
e 194 863
e 194 886
e 194 887
e 194 889
e 194 897
e 194 947
e 194 955
e 194 960
e 194 969
e 194 993
e 194 994
e 194 997
e 194 999
e 195 251
e 195 264
e 195 286
e 195 293
e 195 307
e 195 308
e 195 309
e 195 313
e 195 329
e 195 333
e 195 340
e 195 361
e 195 362
e 195 366
e 195 370
e 195 381
e 195 383
e 195 390
e 195 393
e 195 397
e 195 402
e 195 403
e 195 408
e 195 425
e 195 434
e 195 437
e 195 448
e 195 466
e 195 480
e 195 481
e 195 516
e 195 539
e 195 541
e 195 547
e 195 562
e 195 567
e 195 568
e 195 570
e 195 580
e 195 588
e 195 603
e 195 607
e 195 615
e 195 623
e 195 631
e 195 632
e 195 642
e 195 648
e 195 656
e 195 717
e 195 723
e 195 729
e 195 730
e 195 741
e 195 742
e 195 800
e 195 813
e 195 830
e 195 844
e 195 848
e 195 870
e 195 884
e 195 889
e 195 916
e 195 917
e 195 920
e 195 955
e 195 956
e 195 966
e 195 967
e 195 968
e 195 985
e 195 987
e 195 1000
e 196 254
e 196 269
e 196 273
e 196 278
e 196 283
e 196 310
e 196 325
e 196 337
e 196 365
e 196 369
e 196 376
e 196 388
e 196 389
e 196 391
e 196 437
e 196 451
e 196 475
e 196 482
e 196 485
e 196 494
e 196 502
e 196 511
e 196 512
e 196 516
e 196 523
e 196 526
e 196 527
e 196 548
e 196 561
e 196 568
e 196 572
e 196 582
e 196 598
e 196 599
e 196 611
e 196 615
e 196 630
e 196 641
e 196 644
e 196 648
e 196 652
e 196 666
e 196 668
e 196 683
e 196 685
e 196 695
e 196 707
e 196 708
e 196 709
e 196 715
e 196 723
e 196 728
e 196 755
e 196 756
e 196 768
e 196 773
e 196 791
e 196 798
e 196 800
e 196 802
e 196 805
e 196 835
e 196 861
e 196 871
e 196 872
e 196 911
e 196 916
e 196 919
e 196 923
e 196 956
e 196 964
e 196 970
e 197 258
e 197 261
e 197 265
e 197 273
e 197 281
e 197 285
e 197 295
e 197 310
e 197 326
e 197 335
e 197 339
e 197 341
e 197 348
e 197 368
e 197 379
e 197 384
e 197 396
e 197 404
e 197 412
e 197 433
e 197 449
e 197 455
e 197 461
e 197 473
e 197 484
e 197 490
e 197 495
e 197 501
e 197 513
e 197 544
e 197 558
e 197 563
e 197 579
e 197 581
e 197 583
e 197 585
e 197 587
e 197 593
e 197 601
e 197 633
e 197 638
e 197 651
e 197 681
e 197 683
e 197 695
e 197 710
e 197 720
e 197 819
e 197 827
e 197 840
e 197 847
e 197 850
e 197 854
e 197 879
e 197 885
e 197 891
e 197 895
e 197 908
e 197 929
e 197 979
e 197 983
e 197 993
e 198 251
e 198 252
e 198 263
e 198 269
e 198 270
e 198 290
e 198 293
e 198 298
e 198 303
e 198 306
e 198 307
e 198 312
e 198 313
e 198 327
e 198 337
e 198 365
e 198 368
e 198 370
e 198 376
e 198 393
e 198 411
e 198 412
e 198 418
e 198 423
e 198 428
e 198 450
e 198 453
e 198 457
e 198 462
e 198 478
e 198 481
e 198 482
e 198 497
e 198 501
e 198 509
e 198 527
e 198 536
e 198 546
e 198 556
e 198 578
e 198 592
e 198 597
e 198 600
e 198 615
e 198 621
e 198 623
e 198 648
e 198 653
e 198 659
e 198 661
e 198 665
e 198 670
e 198 680
e 198 685
e 198 686
e 198 687
e 198 712
e 198 722
e 198 726
e 198 727
e 198 728
e 198 732
e 198 734
e 198 742
e 198 752
e 198 765
e 198 793
e 198 816
e 198 829
e 198 857
e 198 862
e 198 866
e 198 869
e 198 879
e 198 881
e 198 900
e 198 903
e 198 907
e 198 929
e 198 967
e 198 968
e 198 969
e 198 971
e 198 984
e 198 992
e 199 264
e 199 268
e 199 275
e 199 280
e 199 313
e 199 315
e 199 325
e 199 348
e 199 358
e 199 368
e 199 370
e 199 381
e 199 394
e 199 397
e 199 399
e 199 409
e 199 411
e 199 440
e 199 442
e 199 446
e 199 448
e 199 450
e 199 464
e 199 465
e 199 475
e 199 478
e 199 480
e 199 483
e 199 490
e 199 496
e 199 515
e 199 516
e 199 532
e 199 558
e 199 577
e 199 586
e 199 587
e 199 588
e 199 597
e 199 611
e 199 612
e 199 614
e 199 615
e 199 624
e 199 629
e 199 656
e 199 671
e 199 699
e 199 710
e 199 714
e 199 716
e 199 717
e 199 728
e 199 732
e 199 735
e 199 738
e 199 745
e 199 760
e 199 773
e 199 779
e 199 789
e 199 794
e 199 802
e 199 808
e 199 809
e 199 813
e 199 816
e 199 878
e 199 884
e 199 904
e 199 913
e 199 923
e 199 927
e 199 934
e 199 935
e 199 951
e 199 962
e 199 964
e 199 982
e 199 1000
e 200 265
e 200 271
e 200 272
e 200 286
e 200 299
e 200 300
e 200 304
e 200 320
e 200 343
e 200 384
e 200 391
e 200 409
e 200 412
e 200 421
e 200 446
e 200 457
e 200 458
e 200 462
e 200 467
e 200 473
e 200 480
e 200 492
e 200 496
e 200 513
e 200 528
e 200 558
e 200 571
e 200 590
e 200 606
e 200 630
e 200 632
e 200 647
e 200 652
e 200 669
e 200 673
e 200 681
e 200 698
e 200 707
e 200 712
e 200 723
e 200 724
e 200 730
e 200 746
e 200 747
e 200 752
e 200 764
e 200 766
e 200 774
e 200 795
e 200 808
e 200 824
e 200 834
e 200 843
e 200 847
e 200 875
e 200 892
e 200 905
e 200 913
e 200 931
e 200 944
e 200 947
e 200 953
e 200 957
e 201 257
e 201 260
e 201 279
e 201 281
e 201 296
e 201 308
e 201 315
e 201 324
e 201 325
e 201 347
e 201 363
e 201 378
e 201 380
e 201 392
e 201 417
e 201 423
e 201 428
e 201 442
e 201 448
e 201 465
e 201 471
e 201 480
e 201 489
e 201 495
e 201 498
e 201 504
e 201 514
e 201 522
e 201 529
e 201 540
e 201 541
e 201 551
e 201 566
e 201 572
e 201 585
e 201 612
e 201 615
e 201 632
e 201 637
e 201 657
e 201 664
e 201 698
e 201 746
e 201 758
e 201 761
e 201 781
e 201 785
e 201 805
e 201 815
e 201 816
e 201 828
e 201 837
e 201 851
e 201 854
e 201 858
e 201 862
e 201 865
e 201 871
e 201 876
e 201 889
e 201 892
e 201 904
e 201 905
e 201 916
e 201 931
e 201 951
e 201 952
e 201 959
e 201 969
e 201 971
e 201 972
e 201 978
e 201 985
e 201 988
e 201 989
e 201 991
e 201 992
e 201 994
e 201 995
e 202 251
e 202 260
e 202 272
e 202 283
e 202 286
e 202 307
e 202 348
e 202 363
e 202 395
e 202 398
e 202 400
e 202 407
e 202 412
e 202 441
e 202 443
e 202 445
e 202 460
e 202 473
e 202 474
e 202 490
e 202 491
e 202 494
e 202 524
e 202 528
e 202 540
e 202 550
e 202 555
e 202 563
e 202 564
e 202 579
e 202 590
e 202 608
e 202 612
e 202 621
e 202 622
e 202 644
e 202 646
e 202 676
e 202 690
e 202 713
e 202 737
e 202 746
e 202 761
e 202 774
e 202 776
e 202 778
e 202 782
e 202 783
e 202 790
e 202 818
e 202 833
e 202 834
e 202 838
e 202 866
e 202 889
e 202 894
e 202 895
e 202 908
e 202 925
e 202 933
e 202 979
e 202 993
e 202 996
e 202 997
e 203 255
e 203 262
e 203 264
e 203 266
e 203 284
e 203 299
e 203 329
e 203 359
e 203 381
e 203 393
e 203 398
e 203 402
e 203 406
e 203 409
e 203 422
e 203 425
e 203 437
e 203 441
e 203 453
e 203 454
e 203 456
e 203 462
e 203 464
e 203 468
e 203 474
e 203 477
e 203 481
e 203 487
e 203 491
e 203 516
e 203 556
e 203 558
e 203 570
e 203 580
e 203 609
e 203 626
e 203 634
e 203 665
e 203 667
e 203 685
e 203 699
e 203 702
e 203 704
e 203 718
e 203 722
e 203 732
e 203 750
e 203 772
e 203 781
e 203 797
e 203 801
e 203 809
e 203 813
e 203 814
e 203 852
e 203 859
e 203 867
e 203 870
e 203 879
e 203 888
e 203 901
e 203 917
e 203 928
e 203 952
e 203 959
e 203 965
e 203 977
e 203 978
e 203 982
e 203 984
e 203 987
e 203 988
e 203 989
e 203 990
e 203 994
e 203 995
e 203 999
e 203 1000
e 204 253
e 204 257
e 204 264
e 204 274
e 204 288
e 204 291
e 204 296
e 204 299
e 204 305
e 204 324
e 204 342
e 204 353
e 204 354
e 204 358
e 204 362
e 204 371
e 204 400
e 204 437
e 204 444
e 204 453
e 204 468
e 204 482
e 204 491
e 204 501
e 204 509
e 204 513
e 204 516
e 204 524
e 204 528
e 204 537
e 204 547
e 204 557
e 204 560
e 204 570
e 204 574
e 204 587
e 204 590
e 204 595
e 204 596
e 204 600
e 204 643
e 204 668
e 204 669
e 204 675
e 204 688
e 204 696
e 204 702
e 204 709
e 204 716
e 204 737
e 204 740
e 204 741
e 204 745
e 204 757
e 204 766
e 204 792
e 204 799
e 204 810
e 204 819
e 204 827
e 204 842
e 204 853
e 204 859
e 204 865
e 204 881
e 204 882
e 204 890
e 204 892
e 204 897
e 204 905
e 204 911
e 204 918
e 204 920
e 204 931
e 204 939
e 204 945
e 204 947
e 204 954
e 204 998
e 205 257
e 205 260
e 205 266
e 205 286
e 205 291
e 205 301
e 205 304
e 205 321
e 205 322
e 205 327
e 205 332
e 205 350
e 205 352
e 205 354
e 205 375
e 205 383
e 205 390
e 205 396
e 205 406
e 205 432
e 205 441
e 205 445
e 205 449
e 205 450
e 205 480
e 205 509
e 205 540
e 205 573
e 205 604
e 205 609
e 205 614
e 205 615
e 205 618
e 205 624
e 205 626
e 205 680
e 205 681
e 205 687
e 205 693
e 205 698
e 205 723
e 205 738
e 205 751
e 205 784
e 205 787
e 205 797
e 205 805
e 205 811
e 205 824
e 205 831
e 205 850
e 205 868
e 205 877
e 205 879
e 205 891
e 205 964
e 205 968
e 205 996
e 206 266
e 206 269
e 206 273
e 206 277
e 206 303
e 206 316
e 206 320
e 206 339
e 206 343
e 206 345
e 206 352
e 206 356
e 206 380
e 206 383
e 206 393
e 206 398
e 206 405
e 206 409
e 206 410
e 206 416
e 206 431
e 206 435
e 206 438
e 206 440
e 206 451
e 206 462
e 206 494
e 206 511
e 206 513
e 206 522
e 206 533
e 206 549
e 206 554
e 206 562
e 206 569
e 206 570
e 206 585
e 206 593
e 206 594
e 206 611
e 206 616
e 206 623
e 206 633
e 206 637
e 206 643
e 206 660
e 206 666
e 206 670
e 206 679
e 206 683
e 206 691
e 206 692
e 206 695
e 206 713
e 206 714
e 206 723
e 206 725
e 206 750
e 206 756
e 206 770
e 206 771
e 206 779
e 206 780
e 206 783
e 206 805
e 206 806
e 206 809
e 206 832
e 206 834
e 206 840
e 206 855
e 206 863
e 206 867
e 206 872
e 206 879
e 206 897
e 206 901
e 206 910
e 206 911
e 206 912
e 206 930
e 206 952
e 206 955
e 206 963
e 206 968
e 206 969
e 206 975
e 206 980
e 206 986
e 207 251
e 207 256
e 207 259
e 207 263
e 207 272
e 207 276
e 207 285
e 207 315
e 207 324
e 207 327
e 207 328
e 207 329
e 207 343
e 207 371
e 207 384
e 207 391
e 207 396
e 207 411
e 207 419
e 207 422
e 207 460
e 207 478
e 207 480
e 207 506
e 207 528
e 207 537
e 207 540
e 207 544
e 207 546
e 207 553
e 207 571
e 207 597
e 207 602
e 207 608
e 207 624
e 207 625
e 207 629
e 207 646
e 207 683
e 207 707
e 207 718
e 207 744
e 207 774
e 207 779
e 207 798
e 207 802
e 207 821
e 207 822
e 207 840
e 207 866
e 207 882
e 207 884
e 207 892
e 207 909
e 207 912
e 207 950
e 207 952
e 207 974
e 207 986
e 207 988
e 207 991
e 208 272
e 208 282
e 208 288
e 208 305
e 208 311
e 208 312
e 208 324
e 208 325
e 208 331
e 208 348
e 208 358
e 208 386
e 208 418
e 208 421
e 208 433
e 208 435
e 208 439
e 208 447
e 208 454
e 208 457
e 208 472
e 208 478
e 208 484
e 208 500
e 208 501
e 208 520
e 208 524
e 208 552
e 208 557
e 208 572
e 208 580
e 208 598
e 208 601
e 208 610
e 208 614
e 208 616
e 208 621
e 208 625
e 208 630
e 208 635
e 208 663
e 208 673
e 208 706
e 208 721
e 208 723
e 208 725
e 208 728
e 208 731
e 208 734
e 208 740
e 208 741
e 208 745
e 208 746
e 208 765
e 208 772
e 208 793
e 208 797
e 208 813
e 208 820
e 208 825
e 208 826
e 208 830
e 208 854
e 208 855
e 208 857
e 208 869
e 208 883
e 208 899
e 208 912
e 208 920
e 208 924
e 208 943
e 208 949
e 208 951
e 208 955
e 208 960
e 208 961
e 208 997
e 209 253
e 209 274
e 209 275
e 209 277
e 209 279
e 209 285
e 209 296
e 209 307
e 209 337
e 209 347
e 209 351
e 209 358
e 209 369
e 209 384
e 209 387
e 209 401
e 209 402
e 209 409
e 209 433
e 209 440
e 209 457
e 209 468
e 209 480
e 209 537
e 209 543
e 209 548
e 209 557
e 209 559
e 209 564
e 209 571
e 209 612
e 209 621
e 209 624
e 209 643
e 209 674
e 209 676
e 209 698
e 209 702
e 209 711
e 209 722
e 209 733
e 209 736
e 209 740
e 209 749
e 209 752
e 209 756
e 209 765
e 209 784
e 209 785
e 209 790
e 209 793
e 209 796
e 209 799
e 209 807
e 209 819
e 209 821
e 209 826
e 209 855
e 209 875
e 209 880
e 209 881
e 209 893
e 209 896
e 209 917
e 209 931
e 209 936
e 209 941
e 209 975
e 209 976
e 209 979
e 209 994
e 209 999
e 210 251
e 210 256
e 210 260
e 210 278
e 210 280
e 210 307
e 210 309
e 210 317
e 210 342
e 210 351
e 210 358
e 210 367
e 210 376
e 210 381
e 210 402
e 210 410
e 210 426
e 210 428
e 210 431
e 210 434
e 210 449
e 210 451
e 210 456
e 210 458
e 210 471
e 210 493
e 210 512
e 210 529
e 210 533
e 210 544
e 210 546
e 210 559
e 210 580
e 210 590
e 210 591
e 210 597
e 210 635
e 210 638
e 210 639
e 210 644
e 210 645
e 210 669
e 210 672
e 210 676
e 210 683
e 210 691
e 210 696
e 210 716
e 210 727
e 210 744
e 210 759
e 210 781
e 210 782
e 210 784
e 210 787
e 210 806
e 210 807
e 210 814
e 210 815
e 210 837
e 210 838
e 210 844
e 210 848
e 210 862
e 210 868
e 210 879
e 210 903
e 210 905
e 210 919
e 210 921
e 210 923
e 210 928
e 210 950
e 210 957
e 210 972
e 210 980
e 210 990
e 210 999
e 211 255
e 211 262
e 211 277
e 211 320
e 211 323
e 211 343
e 211 375
e 211 385
e 211 423
e 211 436
e 211 439
e 211 442
e 211 447
e 211 453
e 211 458
e 211 464
e 211 467
e 211 468
e 211 474
e 211 480
e 211 484
e 211 489
e 211 523
e 211 534
e 211 548
e 211 554
e 211 565
e 211 580
e 211 582
e 211 585
e 211 595
e 211 597
e 211 598
e 211 615
e 211 629
e 211 632
e 211 663
e 211 667
e 211 686
e 211 691
e 211 697
e 211 709
e 211 715
e 211 739
e 211 750
e 211 751
e 211 757
e 211 779
e 211 785
e 211 803
e 211 815
e 211 826
e 211 831
e 211 836
e 211 839
e 211 842
e 211 846
e 211 872
e 211 875
e 211 890
e 211 893
e 211 903
e 211 907
e 211 908
e 211 916
e 211 919
e 211 923
e 211 924
e 211 935
e 211 944
e 211 949
e 211 963
e 211 966
e 211 981
e 211 992
e 211 993
e 211 997
e 212 255
e 212 269
e 212 285
e 212 321
e 212 339
e 212 353
e 212 354
e 212 369
e 212 373
e 212 382
e 212 404
e 212 406
e 212 411
e 212 430
e 212 432
e 212 436
e 212 438
e 212 468
e 212 512
e 212 524
e 212 537
e 212 544
e 212 570
e 212 577
e 212 586
e 212 587
e 212 595
e 212 612
e 212 617
e 212 627
e 212 633
e 212 646
e 212 649
e 212 670
e 212 671
e 212 674
e 212 680
e 212 686
e 212 687
e 212 690
e 212 701
e 212 722
e 212 737
e 212 743
e 212 748
e 212 754
e 212 755
e 212 757
e 212 772
e 212 777
e 212 795
e 212 813
e 212 839
e 212 845
e 212 853
e 212 867
e 212 869
e 212 882
e 212 884
e 212 885
e 212 904
e 212 908
e 212 935
e 212 946
e 212 973
e 212 978
e 212 981
e 212 999
e 212 1000
e 213 263
e 213 264
e 213 270
e 213 316
e 213 319
e 213 323
e 213 331
e 213 333
e 213 338
e 213 350
e 213 351
e 213 363
e 213 369
e 213 374
e 213 377
e 213 388
e 213 390
e 213 394
e 213 396
e 213 406
e 213 414
e 213 415
e 213 426
e 213 432
e 213 449
e 213 482
e 213 500
e 213 511
e 213 533
e 213 543
e 213 572
e 213 592
e 213 598
e 213 613
e 213 628
e 213 639
e 213 640
e 213 659
e 213 674
e 213 679
e 213 699
e 213 714
e 213 715
e 213 719
e 213 724
e 213 725
e 213 727
e 213 729
e 213 731
e 213 734
e 213 759
e 213 777
e 213 779
e 213 780
e 213 787
e 213 794
e 213 795
e 213 799
e 213 800
e 213 802
e 213 804
e 213 805
e 213 810
e 213 813
e 213 830
e 213 831
e 213 846
e 213 868
e 213 876
e 213 882
e 213 910
e 213 926
e 213 927
e 213 930
e 213 937
e 213 963
e 213 968
e 213 979
e 213 994
e 213 1000
e 214 254
e 214 273
e 214 309
e 214 314
e 214 323
e 214 330
e 214 342
e 214 343
e 214 358
e 214 368
e 214 369
e 214 377
e 214 385
e 214 389
e 214 391
e 214 393
e 214 397
e 214 423
e 214 431
e 214 443
e 214 450
e 214 455
e 214 480
e 214 528
e 214 529
e 214 530
e 214 535
e 214 538
e 214 575
e 214 584
e 214 585
e 214 592
e 214 606
e 214 621
e 214 634
e 214 645
e 214 678
e 214 680
e 214 682
e 214 702
e 214 739
e 214 756
e 214 761
e 214 771
e 214 776
e 214 778
e 214 779
e 214 784
e 214 788
e 214 803
e 214 807
e 214 810
e 214 811
e 214 824
e 214 826
e 214 830
e 214 850
e 214 853
e 214 865
e 214 874
e 214 876
e 214 877
e 214 879
e 214 881
e 214 893
e 214 916
e 214 925
e 214 933
e 214 937
e 214 948
e 214 949
e 214 951
e 214 963
e 214 981
e 214 986
e 215 262
e 215 274
e 215 297
e 215 301
e 215 315
e 215 324
e 215 330
e 215 353
e 215 359
e 215 364
e 215 369
e 215 391
e 215 393
e 215 394
e 215 414
e 215 421
e 215 427
e 215 441
e 215 449
e 215 454
e 215 472
e 215 477
e 215 487
e 215 492
e 215 498
e 215 503
e 215 511
e 215 519
e 215 543
e 215 548
e 215 551
e 215 568
e 215 599
e 215 601
e 215 608
e 215 610
e 215 612
e 215 624
e 215 643
e 215 661
e 215 667
e 215 668
e 215 683
e 215 684
e 215 697
e 215 711
e 215 742
e 215 750
e 215 769
e 215 771
e 215 773
e 215 776
e 215 780
e 215 792
e 215 793
e 215 799
e 215 814
e 215 829
e 215 843
e 215 853
e 215 854
e 215 860
e 215 876
e 215 879
e 215 899
e 215 908
e 215 913
e 215 920
e 215 948
e 215 959
e 215 961
e 215 967
e 215 973
e 215 976
e 215 978
e 215 984
e 215 989
e 215 995
e 215 998
e 216 259
e 216 271
e 216 280
e 216 285
e 216 297
e 216 306
e 216 307
e 216 312
e 216 318
e 216 333
e 216 338
e 216 339
e 216 342
e 216 348
e 216 363
e 216 373
e 216 381
e 216 385
e 216 421
e 216 462
e 216 476
e 216 482
e 216 489
e 216 494
e 216 514
e 216 528
e 216 540
e 216 572
e 216 576
e 216 580
e 216 587
e 216 595
e 216 603
e 216 608
e 216 610
e 216 615
e 216 626
e 216 631
e 216 632
e 216 640
e 216 649
e 216 655
e 216 675
e 216 678
e 216 693
e 216 694
e 216 702
e 216 708
e 216 710
e 216 742
e 216 755
e 216 757
e 216 765
e 216 775
e 216 796
e 216 815
e 216 818
e 216 826
e 216 832
e 216 837
e 216 839
e 216 847
e 216 865
e 216 870
e 216 878
e 216 893
e 216 897
e 216 902
e 216 909
e 216 939
e 216 952
e 216 988
e 216 999
e 217 253
e 217 254
e 217 262
e 217 290
e 217 296
e 217 303
e 217 306
e 217 317
e 217 323
e 217 366
e 217 382
e 217 398
e 217 404
e 217 407
e 217 426
e 217 427
e 217 450
e 217 457
e 217 459
e 217 468
e 217 486
e 217 490
e 217 491
e 217 492
e 217 503
e 217 511
e 217 516
e 217 519
e 217 521
e 217 562
e 217 574
e 217 595
e 217 601
e 217 616
e 217 620
e 217 627
e 217 632
e 217 642
e 217 655
e 217 658
e 217 661
e 217 674
e 217 680
e 217 683
e 217 691
e 217 706
e 217 717
e 217 721
e 217 747
e 217 750
e 217 751
e 217 759
e 217 766
e 217 769
e 217 771
e 217 778
e 217 784
e 217 793
e 217 794
e 217 798
e 217 819
e 217 823
e 217 844
e 217 854
e 217 876
e 217 885
e 217 889
e 217 896
e 217 907
e 217 924
e 217 929
e 217 941
e 217 950
e 217 958
e 217 968
e 217 971
e 217 986
e 217 997
e 217 999
e 218 259
e 218 261
e 218 265
e 218 270
e 218 278
e 218 287
e 218 291
e 218 300
e 218 323
e 218 327
e 218 332
e 218 336
e 218 358
e 218 375
e 218 376
e 218 394
e 218 420
e 218 424
e 218 436
e 218 441
e 218 446
e 218 451
e 218 468
e 218 470
e 218 478
e 218 487
e 218 490
e 218 498
e 218 499
e 218 518
e 218 555
e 218 557
e 218 558
e 218 581
e 218 582
e 218 607
e 218 610
e 218 619
e 218 628
e 218 630
e 218 631
e 218 637
e 218 661
e 218 665
e 218 667
e 218 681
e 218 701
e 218 703
e 218 712
e 218 715
e 218 720
e 218 726
e 218 734
e 218 760
e 218 762
e 218 772
e 218 780
e 218 786
e 218 799
e 218 806
e 218 821
e 218 822
e 218 824
e 218 827
e 218 834
e 218 841
e 218 853
e 218 857
e 218 876
e 218 892
e 218 904
e 218 907
e 218 915
e 218 927
e 218 941
e 218 946
e 218 948
e 218 951
e 218 959
e 218 964
e 218 986
e 218 992
e 218 1000
e 219 252
e 219 287
e 219 297
e 219 298
e 219 303
e 219 306
e 219 325
e 219 326
e 219 341
e 219 355
e 219 356
e 219 357
e 219 376
e 219 379
e 219 385
e 219 390
e 219 393
e 219 402
e 219 405
e 219 409
e 219 410
e 219 415
e 219 416
e 219 419
e 219 433
e 219 443
e 219 458
e 219 487
e 219 498
e 219 502
e 219 516
e 219 522
e 219 529
e 219 534
e 219 549
e 219 569
e 219 573
e 219 581
e 219 597
e 219 619
e 219 638
e 219 641
e 219 657
e 219 662
e 219 683
e 219 694
e 219 695
e 219 696
e 219 706
e 219 721
e 219 723
e 219 749
e 219 759
e 219 760
e 219 765
e 219 766
e 219 774
e 219 779
e 219 795
e 219 802
e 219 812
e 219 823
e 219 824
e 219 842
e 219 843
e 219 853
e 219 863
e 219 866
e 219 870
e 219 875
e 219 900
e 219 923
e 219 932
e 219 942
e 219 944
e 219 945
e 219 952
e 219 957
e 219 959
e 219 967
e 219 973
e 219 986
e 219 991
e 220 253
e 220 254
e 220 261
e 220 264
e 220 274
e 220 301
e 220 333
e 220 347
e 220 377
e 220 379
e 220 388
e 220 402
e 220 403
e 220 404
e 220 411
e 220 424
e 220 442
e 220 460
e 220 464
e 220 471
e 220 485
e 220 487
e 220 496
e 220 506
e 220 507
e 220 513
e 220 518
e 220 532
e 220 543
e 220 545
e 220 552
e 220 560
e 220 571
e 220 574
e 220 579
e 220 583
e 220 601
e 220 613
e 220 621
e 220 638
e 220 640
e 220 644
e 220 646
e 220 667
e 220 679
e 220 681
e 220 691
e 220 703
e 220 707
e 220 722
e 220 730
e 220 784
e 220 806
e 220 812
e 220 833
e 220 834
e 220 850
e 220 853
e 220 887
e 220 889
e 220 905
e 220 913
e 220 940
e 220 986
e 220 994
e 221 268
e 221 276
e 221 295
e 221 300
e 221 301
e 221 305
e 221 308
e 221 325
e 221 329
e 221 334
e 221 335
e 221 338
e 221 342
e 221 343
e 221 354
e 221 356
e 221 363
e 221 370
e 221 375
e 221 381
e 221 403
e 221 405
e 221 442
e 221 451
e 221 452
e 221 459
e 221 478
e 221 484
e 221 502
e 221 509
e 221 534
e 221 543
e 221 549
e 221 561
e 221 569
e 221 574
e 221 604
e 221 625
e 221 628
e 221 629
e 221 647
e 221 668
e 221 680
e 221 702
e 221 710
e 221 712
e 221 713
e 221 718
e 221 723
e 221 737
e 221 759
e 221 767
e 221 768
e 221 769
e 221 770
e 221 789
e 221 791
e 221 798
e 221 809
e 221 812
e 221 813
e 221 820
e 221 832
e 221 839
e 221 849
e 221 863
e 221 899
e 221 907
e 221 922
e 221 935
e 221 947
e 221 949
e 221 959
e 221 965
e 221 976
e 221 979
e 221 987
e 221 988
e 222 253
e 222 258
e 222 265
e 222 272
e 222 277
e 222 291
e 222 292
e 222 327
e 222 352
e 222 354
e 222 361
e 222 364
e 222 370
e 222 382
e 222 398
e 222 401
e 222 404
e 222 407
e 222 412
e 222 427
e 222 447
e 222 487
e 222 489
e 222 492
e 222 510
e 222 519
e 222 521
e 222 528
e 222 533
e 222 544
e 222 560
e 222 572
e 222 581
e 222 591
e 222 592
e 222 595
e 222 605
e 222 616
e 222 627
e 222 643
e 222 658
e 222 664
e 222 665
e 222 692
e 222 698
e 222 703
e 222 704
e 222 706
e 222 715
e 222 734
e 222 753
e 222 759
e 222 785
e 222 818
e 222 825
e 222 828
e 222 842
e 222 849
e 222 860
e 222 877
e 222 904
e 222 910
e 222 933
e 222 937
e 222 938
e 222 944
e 222 949
e 222 954
e 222 955
e 222 958
e 222 968
e 222 973
e 222 981
e 222 986
e 222 990
e 223 251
e 223 280
e 223 282
e 223 302
e 223 305
e 223 310
e 223 326
e 223 327
e 223 340
e 223 348
e 223 357
e 223 361
e 223 365
e 223 367
e 223 390
e 223 394
e 223 399
e 223 404
e 223 405
e 223 414
e 223 428
e 223 445
e 223 455
e 223 458
e 223 470
e 223 472
e 223 484
e 223 488
e 223 502
e 223 554
e 223 593
e 223 599
e 223 641
e 223 646
e 223 669
e 223 672
e 223 688
e 223 698
e 223 699
e 223 702
e 223 703
e 223 709
e 223 714
e 223 722
e 223 723
e 223 733
e 223 745
e 223 755
e 223 759
e 223 762
e 223 767
e 223 774
e 223 779
e 223 789
e 223 802
e 223 816
e 223 825
e 223 831
e 223 835
e 223 836
e 223 842
e 223 845
e 223 849
e 223 851
e 223 856
e 223 893
e 223 894
e 223 899
e 223 903
e 223 908
e 223 909
e 223 921
e 223 928
e 223 933
e 223 935
e 223 955
e 223 957
e 223 959
e 223 961
e 223 971
e 223 980
e 223 988
e 223 996
e 223 997
e 224 255
e 224 256
e 224 269
e 224 276
e 224 286
e 224 291
e 224 295
e 224 299
e 224 308
e 224 314
e 224 318
e 224 342
e 224 349
e 224 355
e 224 356
e 224 361
e 224 365
e 224 373
e 224 387
e 224 396
e 224 414
e 224 418
e 224 423
e 224 428
e 224 429
e 224 432
e 224 451
e 224 452
e 224 454
e 224 467
e 224 476
e 224 484
e 224 496
e 224 500
e 224 505
e 224 525
e 224 528
e 224 533
e 224 552
e 224 562
e 224 579
e 224 584
e 224 604
e 224 635
e 224 644
e 224 654
e 224 666
e 224 678
e 224 705
e 224 728
e 224 733
e 224 746
e 224 752
e 224 758
e 224 765
e 224 773
e 224 777
e 224 780
e 224 782
e 224 796
e 224 798
e 224 803
e 224 806
e 224 807
e 224 812
e 224 819
e 224 822
e 224 832
e 224 842
e 224 850
e 224 860
e 224 863
e 224 864
e 224 866
e 224 894
e 224 896
e 224 904
e 224 931
e 224 950
e 224 951
e 224 957
e 224 963
e 224 974
e 224 979
e 224 983
e 224 992
e 224 994
e 225 272
e 225 276
e 225 279
e 225 281
e 225 288
e 225 295
e 225 316
e 225 317
e 225 322
e 225 333
e 225 342
e 225 363
e 225 365
e 225 378
e 225 379
e 225 383
e 225 396
e 225 401
e 225 410
e 225 434
e 225 440
e 225 449
e 225 455
e 225 492
e 225 496
e 225 512
e 225 522
e 225 532
e 225 543
e 225 554
e 225 564
e 225 581
e 225 585
e 225 593
e 225 627
e 225 650
e 225 652
e 225 661
e 225 668
e 225 672
e 225 684
e 225 691
e 225 703
e 225 706
e 225 709
e 225 714
e 225 717
e 225 741
e 225 743
e 225 745
e 225 748
e 225 796
e 225 809
e 225 822
e 225 826
e 225 830
e 225 840
e 225 866
e 225 882
e 225 892
e 225 895
e 225 906
e 225 907
e 225 915
e 225 918
e 225 928
e 225 934
e 225 945
e 225 974
e 225 987
e 225 998
e 226 251
e 226 256
e 226 258
e 226 278
e 226 287
e 226 306
e 226 310
e 226 311
e 226 314
e 226 349
e 226 361
e 226 363
e 226 366
e 226 368
e 226 374
e 226 377
e 226 383
e 226 399
e 226 400
e 226 423
e 226 429
e 226 438
e 226 459
e 226 474
e 226 482
e 226 523
e 226 553
e 226 565
e 226 567
e 226 575
e 226 583
e 226 592
e 226 609
e 226 613
e 226 624
e 226 628
e 226 629
e 226 630
e 226 634
e 226 646
e 226 651
e 226 657
e 226 667
e 226 684
e 226 716
e 226 728
e 226 742
e 226 746
e 226 762
e 226 778
e 226 855
e 226 857
e 226 870
e 226 878
e 226 879
e 226 888
e 226 898
e 226 930
e 226 955
e 226 976
e 226 980
e 226 991
e 227 258
e 227 263
e 227 264
e 227 301
e 227 302
e 227 303
e 227 316
e 227 324
e 227 350
e 227 353
e 227 354
e 227 389
e 227 390
e 227 394
e 227 397
e 227 405
e 227 417
e 227 421
e 227 429
e 227 432
e 227 433
e 227 435
e 227 437
e 227 439
e 227 447
e 227 458
e 227 462
e 227 480
e 227 483
e 227 485
e 227 486
e 227 500
e 227 504
e 227 515
e 227 518
e 227 524
e 227 526
e 227 528
e 227 544
e 227 545
e 227 547
e 227 553
e 227 585
e 227 586
e 227 587
e 227 596
e 227 612
e 227 618
e 227 622
e 227 639
e 227 664
e 227 675
e 227 682
e 227 694
e 227 735
e 227 742
e 227 748
e 227 755
e 227 770
e 227 779
e 227 786
e 227 791
e 227 825
e 227 826
e 227 828
e 227 860
e 227 883
e 227 902
e 227 910
e 227 912
e 227 933
e 227 940
e 227 943
e 227 946
e 227 947
e 227 955
e 227 958
e 227 974
e 227 980
e 227 995
e 228 259
e 228 277
e 228 278
e 228 280
e 228 285
e 228 287
e 228 298
e 228 308
e 228 318
e 228 324
e 228 325
e 228 331
e 228 335
e 228 338
e 228 347
e 228 350
e 228 353
e 228 365
e 228 382
e 228 384
e 228 389
e 228 392
e 228 399
e 228 403
e 228 411
e 228 422
e 228 436
e 228 442
e 228 461
e 228 468
e 228 471
e 228 477
e 228 481
e 228 495
e 228 500
e 228 505
e 228 510
e 228 514
e 228 515
e 228 533
e 228 535
e 228 536
e 228 540
e 228 541
e 228 560
e 228 570
e 228 577
e 228 586
e 228 598
e 228 609
e 228 620
e 228 630
e 228 634
e 228 641
e 228 643
e 228 650
e 228 652
e 228 656
e 228 660
e 228 665
e 228 670
e 228 675
e 228 689
e 228 693
e 228 699
e 228 700
e 228 702
e 228 710
e 228 716
e 228 718
e 228 726
e 228 730
e 228 746
e 228 750
e 228 764
e 228 766
e 228 770
e 228 778
e 228 802
e 228 841
e 228 844
e 228 867
e 228 869
e 228 871
e 228 872
e 228 877
e 228 878
e 228 899
e 228 902
e 228 919
e 228 931
e 228 932
e 228 941
e 228 948
e 228 959
e 228 961
e 228 978
e 228 982
e 228 990
e 228 1000
e 229 262
e 229 264
e 229 272
e 229 275
e 229 277
e 229 297
e 229 336
e 229 351
e 229 357
e 229 368
e 229 379
e 229 381
e 229 388
e 229 389
e 229 395
e 229 399
e 229 410
e 229 421
e 229 425
e 229 438
e 229 442
e 229 463
e 229 467
e 229 469
e 229 477
e 229 479
e 229 480
e 229 492
e 229 495
e 229 500
e 229 501
e 229 518
e 229 528
e 229 530
e 229 543
e 229 549
e 229 593
e 229 600
e 229 602
e 229 614
e 229 620
e 229 628
e 229 631
e 229 636
e 229 639
e 229 642
e 229 646
e 229 656
e 229 658
e 229 679
e 229 691
e 229 709
e 229 722
e 229 723
e 229 765
e 229 779
e 229 780
e 229 789
e 229 798
e 229 801
e 229 811
e 229 812
e 229 821
e 229 829
e 229 830
e 229 834
e 229 853
e 229 854
e 229 870
e 229 878
e 229 879
e 229 896
e 229 902
e 229 921
e 229 929
e 229 930
e 229 956
e 229 958
e 229 961
e 229 963
e 229 966
e 229 969
e 229 990
e 230 254
e 230 258
e 230 271
e 230 275
e 230 276
e 230 284
e 230 286
e 230 305
e 230 359
e 230 374
e 230 376
e 230 380
e 230 391
e 230 393
e 230 395
e 230 396
e 230 400
e 230 411
e 230 417
e 230 450
e 230 464
e 230 474
e 230 488
e 230 500
e 230 506
e 230 525
e 230 550
e 230 562
e 230 570
e 230 571
e 230 589
e 230 599
e 230 606
e 230 608
e 230 614
e 230 615
e 230 617
e 230 627
e 230 630
e 230 642
e 230 643
e 230 650
e 230 651
e 230 676
e 230 679
e 230 685
e 230 695
e 230 700
e 230 722
e 230 732
e 230 734
e 230 739
e 230 754
e 230 758
e 230 761
e 230 763
e 230 764
e 230 766
e 230 793
e 230 809
e 230 814
e 230 826
e 230 830
e 230 838
e 230 850
e 230 866
e 230 873
e 230 876
e 230 906
e 230 908
e 230 914
e 230 937
e 230 951
e 230 968
e 230 986
e 230 987
e 230 1000
e 231 259
e 231 261
e 231 265
e 231 266
e 231 268
e 231 272
e 231 279
e 231 288
e 231 296
e 231 302
e 231 308
e 231 318
e 231 323
e 231 324
e 231 343
e 231 373
e 231 377
e 231 384
e 231 394
e 231 398
e 231 403
e 231 417
e 231 432
e 231 433
e 231 434
e 231 443
e 231 446
e 231 453
e 231 456
e 231 473
e 231 484
e 231 485
e 231 507
e 231 517
e 231 539
e 231 545
e 231 550
e 231 557
e 231 568
e 231 578
e 231 580
e 231 588
e 231 596
e 231 613
e 231 617
e 231 631
e 231 663
e 231 684
e 231 696
e 231 698
e 231 699
e 231 701
e 231 711
e 231 713
e 231 714
e 231 745
e 231 753
e 231 755
e 231 758
e 231 762
e 231 763
e 231 765
e 231 776
e 231 814
e 231 822
e 231 828
e 231 862
e 231 872
e 231 918
e 231 919
e 231 925
e 231 942
e 231 949
e 231 955
e 231 958
e 231 969
e 231 975
e 231 978
e 231 979
e 231 991
e 231 995
e 232 273
e 232 279
e 232 283
e 232 290
e 232 302
e 232 315
e 232 329
e 232 363
e 232 386
e 232 407
e 232 417
e 232 426
e 232 427
e 232 438
e 232 441
e 232 443
e 232 468
e 232 470
e 232 478
e 232 489
e 232 491
e 232 516
e 232 525
e 232 558
e 232 561
e 232 589
e 232 598
e 232 604
e 232 605
e 232 606
e 232 608
e 232 629
e 232 631
e 232 649
e 232 658
e 232 666
e 232 686
e 232 689
e 232 690
e 232 700
e 232 709
e 232 727
e 232 734
e 232 737
e 232 764
e 232 765
e 232 766
e 232 779
e 232 786
e 232 805
e 232 814
e 232 818
e 232 821
e 232 849
e 232 857
e 232 861
e 232 867
e 232 885
e 232 922
e 232 928
e 232 935
e 232 947
e 232 952
e 232 955
e 232 958
e 232 966
e 232 987
e 233 263
e 233 273
e 233 280
e 233 284
e 233 342
e 233 347
e 233 354
e 233 356
e 233 363
e 233 405
e 233 412
e 233 415
e 233 447
e 233 453
e 233 454
e 233 464
e 233 480
e 233 482
e 233 487
e 233 500
e 233 517
e 233 523
e 233 528
e 233 529
e 233 533
e 233 572
e 233 586
e 233 592
e 233 593
e 233 600
e 233 603
e 233 609
e 233 612
e 233 642
e 233 656
e 233 662
e 233 674
e 233 691
e 233 698
e 233 709
e 233 727
e 233 731
e 233 737
e 233 752
e 233 759
e 233 784
e 233 786
e 233 796
e 233 804
e 233 808
e 233 812
e 233 828
e 233 832
e 233 850
e 233 853
e 233 857
e 233 858
e 233 886
e 233 889
e 233 898
e 233 917
e 233 935
e 233 939
e 233 954
e 233 957
e 233 963
e 233 965
e 233 969
e 233 981
e 234 254
e 234 255
e 234 256
e 234 257
e 234 258
e 234 259
e 234 260
e 234 278
e 234 291
e 234 305
e 234 327
e 234 356
e 234 360
e 234 365
e 234 389
e 234 416
e 234 424
e 234 434
e 234 486
e 234 498
e 234 527
e 234 529
e 234 531
e 234 539
e 234 577
e 234 579
e 234 588
e 234 604
e 234 624
e 234 631
e 234 648
e 234 652
e 234 660
e 234 669
e 234 675
e 234 684
e 234 689
e 234 725
e 234 726
e 234 727
e 234 728
e 234 734
e 234 749
e 234 751
e 234 759
e 234 760
e 234 771
e 234 777
e 234 778
e 234 779
e 234 782
e 234 785
e 234 789
e 234 820
e 234 825
e 234 867
e 234 871
e 234 876
e 234 879
e 234 887
e 234 896
e 234 907
e 234 912
e 234 914
e 234 931
e 234 937
e 234 952
e 234 962
e 234 984
e 235 251
e 235 255
e 235 257
e 235 266
e 235 273
e 235 278
e 235 279
e 235 292
e 235 336
e 235 346
e 235 361
e 235 362
e 235 373
e 235 386
e 235 394
e 235 400
e 235 401
e 235 419
e 235 426
e 235 432
e 235 434
e 235 435
e 235 436
e 235 439
e 235 444
e 235 449
e 235 456
e 235 457
e 235 470
e 235 476
e 235 477
e 235 483
e 235 501
e 235 506
e 235 509
e 235 524
e 235 530
e 235 536
e 235 537
e 235 549
e 235 551
e 235 554
e 235 579
e 235 582
e 235 584
e 235 598
e 235 603
e 235 611
e 235 624
e 235 640
e 235 649
e 235 673
e 235 692
e 235 707
e 235 722
e 235 725
e 235 739
e 235 744
e 235 745
e 235 754
e 235 765
e 235 767
e 235 769
e 235 781
e 235 804
e 235 809
e 235 812
e 235 814
e 235 826
e 235 829
e 235 834
e 235 856
e 235 877
e 235 887
e 235 891
e 235 892
e 235 893
e 235 899
e 235 900
e 235 907
e 235 920
e 235 921
e 235 932
e 235 937
e 235 938
e 235 940
e 235 951
e 235 953
e 235 956
e 235 958
e 235 970
e 235 977
e 235 996
e 236 256
e 236 259
e 236 266
e 236 292
e 236 296
e 236 323
e 236 327
e 236 330
e 236 334
e 236 342
e 236 344
e 236 357
e 236 368
e 236 371
e 236 381
e 236 394
e 236 428
e 236 430
e 236 434
e 236 439
e 236 440
e 236 451
e 236 453
e 236 459
e 236 477
e 236 481
e 236 488
e 236 506
e 236 509
e 236 512
e 236 516
e 236 538
e 236 542
e 236 548
e 236 556
e 236 561
e 236 566
e 236 586
e 236 590
e 236 627
e 236 630
e 236 631
e 236 633
e 236 636
e 236 657
e 236 667
e 236 670
e 236 677
e 236 692
e 236 693
e 236 702
e 236 710
e 236 714
e 236 738
e 236 742
e 236 743
e 236 749
e 236 755
e 236 769
e 236 781
e 236 784
e 236 785
e 236 794
e 236 818
e 236 838
e 236 844
e 236 845
e 236 848
e 236 862
e 236 865
e 236 867
e 236 874
e 236 884
e 236 912
e 236 918
e 236 933
e 236 945
e 236 987
e 236 994
e 236 998
e 237 261
e 237 274
e 237 281
e 237 297
e 237 299
e 237 306
e 237 310
e 237 311
e 237 315
e 237 339
e 237 341
e 237 358
e 237 364
e 237 372
e 237 385
e 237 395
e 237 408
e 237 420
e 237 437
e 237 442
e 237 451
e 237 476
e 237 492
e 237 497
e 237 502
e 237 506
e 237 532
e 237 540
e 237 550
e 237 552
e 237 555
e 237 560
e 237 591
e 237 593
e 237 599
e 237 619
e 237 620
e 237 643
e 237 644
e 237 645
e 237 646
e 237 658
e 237 660
e 237 672
e 237 673
e 237 676
e 237 679
e 237 685
e 237 698
e 237 701
e 237 706
e 237 716
e 237 722
e 237 735
e 237 736
e 237 741
e 237 761
e 237 801
e 237 802
e 237 809
e 237 852
e 237 854
e 237 870
e 237 880
e 237 882
e 237 885
e 237 896
e 237 903
e 237 930
e 237 934
e 237 937
e 237 952
e 237 962
e 237 967
e 237 972
e 237 984
e 237 985
e 237 988
e 237 991
e 237 995
e 238 252
e 238 263
e 238 271
e 238 299
e 238 308
e 238 312
e 238 329
e 238 336
e 238 340
e 238 357
e 238 364
e 238 378
e 238 407
e 238 420
e 238 426
e 238 428
e 238 435
e 238 456
e 238 468
e 238 471
e 238 475
e 238 476
e 238 481
e 238 487
e 238 489
e 238 506
e 238 509
e 238 514
e 238 515
e 238 531
e 238 534
e 238 545
e 238 548
e 238 549
e 238 556
e 238 560
e 238 578
e 238 580
e 238 585
e 238 587
e 238 588
e 238 605
e 238 632
e 238 648
e 238 665
e 238 673
e 238 675
e 238 677
e 238 692
e 238 702
e 238 720
e 238 724
e 238 733
e 238 738
e 238 739
e 238 746
e 238 754
e 238 814
e 238 825
e 238 831
e 238 847
e 238 849
e 238 857
e 238 862
e 238 864
e 238 871
e 238 877
e 238 890
e 238 894
e 238 897
e 238 899
e 238 902
e 238 903
e 238 920
e 238 930
e 238 932
e 238 940
e 238 944
e 238 956
e 238 975
e 238 983
e 238 998
e 239 259
e 239 271
e 239 287
e 239 289
e 239 295
e 239 302
e 239 324
e 239 356
e 239 359
e 239 402
e 239 412
e 239 421
e 239 437
e 239 438
e 239 444
e 239 449
e 239 456
e 239 466
e 239 472
e 239 473
e 239 479
e 239 485
e 239 489
e 239 490
e 239 491
e 239 501
e 239 512
e 239 522
e 239 524
e 239 529
e 239 565
e 239 578
e 239 580
e 239 582
e 239 602
e 239 606
e 239 615
e 239 628
e 239 658
e 239 697
e 239 705
e 239 714
e 239 722
e 239 731
e 239 738
e 239 739
e 239 754
e 239 765
e 239 788
e 239 801
e 239 808
e 239 845
e 239 871
e 239 872
e 239 877
e 239 893
e 239 910
e 239 915
e 239 921
e 239 924
e 239 930
e 239 945
e 239 948
e 239 964
e 239 974
e 239 987
e 239 988
e 239 998
e 240 261
e 240 268
e 240 271
e 240 280
e 240 286
e 240 292
e 240 305
e 240 307
e 240 313
e 240 319
e 240 329
e 240 331
e 240 346
e 240 364
e 240 372
e 240 373
e 240 374
e 240 410
e 240 415
e 240 417
e 240 420
e 240 428
e 240 437
e 240 471
e 240 472
e 240 479
e 240 483
e 240 493
e 240 504
e 240 519
e 240 520
e 240 521
e 240 525
e 240 528
e 240 531
e 240 544
e 240 555
e 240 565
e 240 594
e 240 603
e 240 606
e 240 610
e 240 616
e 240 621
e 240 627
e 240 630
e 240 645
e 240 652
e 240 656
e 240 670
e 240 674
e 240 700
e 240 704
e 240 708
e 240 720
e 240 738
e 240 758
e 240 765
e 240 766
e 240 768
e 240 790
e 240 793
e 240 819
e 240 830
e 240 844
e 240 847
e 240 867
e 240 881
e 240 883
e 240 919
e 240 929
e 240 932
e 240 941
e 240 949
e 240 961
e 240 966
e 240 969
e 240 970
e 240 993
e 241 259
e 241 270
e 241 280
e 241 289
e 241 311
e 241 322
e 241 326
e 241 331
e 241 338
e 241 353
e 241 360
e 241 381
e 241 387
e 241 388
e 241 393
e 241 402
e 241 409
e 241 437
e 241 440
e 241 471
e 241 474
e 241 475
e 241 479
e 241 484
e 241 487
e 241 490
e 241 510
e 241 530
e 241 546
e 241 547
e 241 559
e 241 569
e 241 575
e 241 595
e 241 606
e 241 609
e 241 613
e 241 622
e 241 679
e 241 685
e 241 690
e 241 694
e 241 704
e 241 706
e 241 738
e 241 742
e 241 744
e 241 751
e 241 754
e 241 791
e 241 800
e 241 801
e 241 826
e 241 831
e 241 835
e 241 842
e 241 847
e 241 854
e 241 859
e 241 867
e 241 869
e 241 882
e 241 896
e 241 912
e 241 938
e 241 942
e 241 943
e 241 958
e 241 968
e 241 970
e 241 972
e 241 973
e 241 976
e 241 983
e 241 989
e 242 251
e 242 254
e 242 256
e 242 259
e 242 286
e 242 288
e 242 291
e 242 303
e 242 305
e 242 306
e 242 314
e 242 318
e 242 319
e 242 324
e 242 333
e 242 342
e 242 343
e 242 349
e 242 379
e 242 394
e 242 399
e 242 403
e 242 414
e 242 436
e 242 494
e 242 500
e 242 516
e 242 517
e 242 538
e 242 545
e 242 551
e 242 573
e 242 581
e 242 595
e 242 603
e 242 611
e 242 615
e 242 619
e 242 629
e 242 634
e 242 636
e 242 648
e 242 691
e 242 698
e 242 709
e 242 774
e 242 814
e 242 826
e 242 834
e 242 837
e 242 839
e 242 841
e 242 864
e 242 872
e 242 881
e 242 890
e 242 892
e 242 895
e 242 902
e 242 914
e 242 919
e 242 920
e 242 946
e 242 947
e 242 950
e 242 971
e 242 997
e 243 256
e 243 271
e 243 283
e 243 287
e 243 298
e 243 308
e 243 317
e 243 322
e 243 344
e 243 347
e 243 351
e 243 353
e 243 354
e 243 359
e 243 373
e 243 397
e 243 411
e 243 428
e 243 429
e 243 434
e 243 444
e 243 527
e 243 535
e 243 559
e 243 565
e 243 576
e 243 584
e 243 586
e 243 595
e 243 599
e 243 606
e 243 611
e 243 627
e 243 630
e 243 641
e 243 663
e 243 668
e 243 672
e 243 677
e 243 705
e 243 707
e 243 711
e 243 716
e 243 721
e 243 727
e 243 744
e 243 748
e 243 754
e 243 755
e 243 763
e 243 766
e 243 773
e 243 777
e 243 780
e 243 787
e 243 817
e 243 829
e 243 873
e 243 881
e 243 891
e 243 895
e 243 898
e 243 901
e 243 905
e 243 924
e 243 926
e 243 928
e 243 933
e 243 943
e 243 951
e 243 972
e 243 992
e 243 999
e 244 260
e 244 262
e 244 265
e 244 272
e 244 274
e 244 282
e 244 283
e 244 305
e 244 307
e 244 318
e 244 328
e 244 331
e 244 335
e 244 349
e 244 375
e 244 385
e 244 387
e 244 390
e 244 391
e 244 392
e 244 429
e 244 435
e 244 438
e 244 444
e 244 470
e 244 485
e 244 494
e 244 499
e 244 504
e 244 505
e 244 514
e 244 521
e 244 529
e 244 532
e 244 542
e 244 550
e 244 557
e 244 568
e 244 593
e 244 595
e 244 604
e 244 606
e 244 608
e 244 610
e 244 612
e 244 646
e 244 647
e 244 651
e 244 656
e 244 673
e 244 679
e 244 683
e 244 687
e 244 688
e 244 696
e 244 706
e 244 709
e 244 718
e 244 731
e 244 766
e 244 774
e 244 777
e 244 780
e 244 783
e 244 794
e 244 802
e 244 827
e 244 833
e 244 835
e 244 837
e 244 840
e 244 841
e 244 844
e 244 852
e 244 860
e 244 862
e 244 865
e 244 869
e 244 885
e 244 887
e 244 898
e 244 908
e 244 914
e 244 930
e 244 941
e 244 944
e 244 949
e 244 950
e 244 952
e 244 958
e 244 977
e 244 983
e 244 994
e 245 251
e 245 256
e 245 258
e 245 270
e 245 287
e 245 301
e 245 303
e 245 305
e 245 317
e 245 328
e 245 329
e 245 344
e 245 345
e 245 362
e 245 369
e 245 371
e 245 376
e 245 396
e 245 411
e 245 414
e 245 430
e 245 441
e 245 444
e 245 449
e 245 460
e 245 477
e 245 483
e 245 484
e 245 485
e 245 495
e 245 500
e 245 503
e 245 504
e 245 523
e 245 524
e 245 526
e 245 527
e 245 542
e 245 547
e 245 562
e 245 571
e 245 579
e 245 582
e 245 585
e 245 598
e 245 604
e 245 610
e 245 612
e 245 637
e 245 650
e 245 653
e 245 655
e 245 659
e 245 662
e 245 683
e 245 714
e 245 718
e 245 720
e 245 728
e 245 733
e 245 769
e 245 771
e 245 782
e 245 788
e 245 809
e 245 822
e 245 826
e 245 833
e 245 849
e 245 853
e 245 856
e 245 869
e 245 878
e 245 892
e 245 895
e 245 911
e 245 918
e 245 920
e 245 924
e 245 931
e 245 939
e 245 962
e 245 971
e 245 982
e 245 983
e 246 252
e 246 253
e 246 255
e 246 256
e 246 268
e 246 271
e 246 273
e 246 291
e 246 299
e 246 316
e 246 318
e 246 322
e 246 334
e 246 335
e 246 337
e 246 353
e 246 355
e 246 359
e 246 366
e 246 378
e 246 395
e 246 396
e 246 402
e 246 404
e 246 411
e 246 416
e 246 421
e 246 457
e 246 470
e 246 472
e 246 481
e 246 510
e 246 511
e 246 512
e 246 517
e 246 532
e 246 536
e 246 540
e 246 541
e 246 553
e 246 560
e 246 571
e 246 578
e 246 581
e 246 629
e 246 633
e 246 644
e 246 653
e 246 664
e 246 669
e 246 671
e 246 706
e 246 713
e 246 717
e 246 720
e 246 726
e 246 729
e 246 746
e 246 755
e 246 768
e 246 769
e 246 792
e 246 804
e 246 806
e 246 807
e 246 856
e 246 869
e 246 876
e 246 886
e 246 898
e 246 903
e 246 955
e 246 965
e 246 969
e 246 977
e 246 982
e 246 986
e 246 987
e 246 989
e 247 253
e 247 259
e 247 262
e 247 266
e 247 268
e 247 331
e 247 338
e 247 342
e 247 347
e 247 359
e 247 387
e 247 391
e 247 421
e 247 422
e 247 437
e 247 455
e 247 462
e 247 464
e 247 483
e 247 494
e 247 496
e 247 497
e 247 510
e 247 520
e 247 548
e 247 555
e 247 556
e 247 568
e 247 578
e 247 585
e 247 594
e 247 595
e 247 601
e 247 607
e 247 613
e 247 614
e 247 615
e 247 623
e 247 644
e 247 651
e 247 653
e 247 656
e 247 674
e 247 678
e 247 681
e 247 687
e 247 688
e 247 703
e 247 714
e 247 715
e 247 729
e 247 732
e 247 746
e 247 748
e 247 767
e 247 771
e 247 784
e 247 788
e 247 799
e 247 816
e 247 827
e 247 859
e 247 875
e 247 883
e 247 889
e 247 898
e 247 914
e 247 921
e 247 929
e 247 937
e 247 939
e 247 941
e 247 948
e 247 952
e 247 957
e 247 965
e 247 990
e 247 994
e 248 269
e 248 274
e 248 275
e 248 282
e 248 289
e 248 297
e 248 306
e 248 317
e 248 324
e 248 336
e 248 374
e 248 381
e 248 387
e 248 396
e 248 398
e 248 403
e 248 405
e 248 412
e 248 425
e 248 428
e 248 429
e 248 430
e 248 433
e 248 440
e 248 449
e 248 450
e 248 460
e 248 461
e 248 465
e 248 536
e 248 549
e 248 563
e 248 566
e 248 569
e 248 570
e 248 590
e 248 602
e 248 616
e 248 619
e 248 620
e 248 627
e 248 649
e 248 680
e 248 690
e 248 702
e 248 704
e 248 736
e 248 740
e 248 742
e 248 745
e 248 746
e 248 751
e 248 753
e 248 761
e 248 767
e 248 778
e 248 779
e 248 782
e 248 785
e 248 794
e 248 815
e 248 839
e 248 843
e 248 845
e 248 847
e 248 858
e 248 874
e 248 877
e 248 880
e 248 888
e 248 897
e 248 900
e 248 921
e 248 933
e 248 957
e 248 967
e 248 978
e 249 274
e 249 275
e 249 276
e 249 281
e 249 283
e 249 287
e 249 291
e 249 333
e 249 340
e 249 344
e 249 351
e 249 366
e 249 373
e 249 380
e 249 388
e 249 395
e 249 411
e 249 415
e 249 417
e 249 423
e 249 431
e 249 434
e 249 442
e 249 444
e 249 449
e 249 463
e 249 479
e 249 484
e 249 487
e 249 495
e 249 498
e 249 503
e 249 514
e 249 542
e 249 548
e 249 549
e 249 565
e 249 574
e 249 584
e 249 602
e 249 606
e 249 610
e 249 618
e 249 620
e 249 621
e 249 640
e 249 644
e 249 645
e 249 660
e 249 678
e 249 697
e 249 709
e 249 733
e 249 761
e 249 763
e 249 764
e 249 791
e 249 793
e 249 795
e 249 804
e 249 808
e 249 826
e 249 833
e 249 864
e 249 873
e 249 878
e 249 881
e 249 891
e 249 908
e 249 913
e 249 915
e 249 936
e 249 949
e 249 962
e 249 972
e 249 973
e 249 976
e 249 979
e 250 255
e 250 259
e 250 273
e 250 278
e 250 294
e 250 351
e 250 362
e 250 378
e 250 409
e 250 412
e 250 426
e 250 432
e 250 436
e 250 437
e 250 439
e 250 458
e 250 462
e 250 466
e 250 474
e 250 489
e 250 493
e 250 496
e 250 498
e 250 513
e 250 515
e 250 526
e 250 535
e 250 541
e 250 568
e 250 576
e 250 595
e 250 615
e 250 624
e 250 631
e 250 647
e 250 651
e 250 677
e 250 691
e 250 696
e 250 699
e 250 701
e 250 754
e 250 769
e 250 776
e 250 781
e 250 811
e 250 823
e 250 838
e 250 844
e 250 852
e 250 855
e 250 867
e 250 869
e 250 876
e 250 880
e 250 890
e 250 893
e 250 899
e 250 901
e 250 904
e 250 922
e 250 930
e 250 932
e 250 937
e 250 940
e 250 950
e 250 957
e 250 966
e 250 975
