p edge 1000 1820
e 1 442
e 1 593
e 1 712
e 1 728
e 1 765
e 1 857
e 1 861
e 1 915
e 2 266
e 2 331
e 2 419
e 2 496
e 2 546
e 2 631
e 2 747
e 2 864
e 2 941
e 3 362
e 3 395
e 3 701
e 3 743
e 3 1000
e 4 431
e 4 439
e 4 537
e 4 874
e 4 965
e 5 385
e 5 407
e 5 467
e 5 551
e 5 647
e 5 719
e 5 735
e 5 804
e 5 929
e 5 947
e 6 421
e 6 656
e 7 260
e 7 321
e 7 402
e 7 411
e 7 442
e 7 444
e 7 672
e 7 716
e 7 826
e 7 917
e 8 331
e 8 496
e 8 497
e 8 585
e 8 586
e 8 730
e 8 847
e 8 908
e 8 925
e 8 985
e 8 997
e 9 534
e 9 550
e 9 605
e 9 677
e 9 831
e 9 867
e 10 312
e 10 359
e 10 369
e 10 441
e 10 476
e 10 715
e 10 933
e 10 989
e 11 265
e 11 580
e 11 825
e 11 949
e 12 337
e 12 420
e 12 531
e 12 561
e 12 615
e 12 729
e 12 746
e 12 851
e 12 869
e 13 275
e 13 293
e 13 344
e 13 459
e 13 498
e 13 542
e 13 586
e 13 596
e 13 647
e 13 674
e 13 697
e 13 731
e 13 781
e 13 881
e 13 903
e 13 908
e 14 426
e 14 559
e 14 578
e 14 908
e 14 943
e 15 574
e 15 805
e 15 843
e 15 907
e 16 440
e 16 562
e 16 629
e 16 646
e 16 916
e 17 439
e 17 518
e 17 545
e 17 602
e 17 834
e 17 954
e 18 257
e 18 260
e 18 376
e 18 757
e 18 931
e 19 342
e 19 364
e 19 374
e 19 453
e 19 596
e 19 610
e 19 642
e 19 813
e 19 845
e 19 846
e 20 303
e 20 415
e 20 493
e 20 945
e 20 965
e 20 995
e 21 299
e 21 389
e 21 464
e 21 529
e 21 582
e 21 668
e 21 670
e 21 734
e 21 839
e 21 918
e 21 931
e 22 298
e 22 366
e 22 601
e 22 825
e 23 451
e 23 628
e 23 662
e 23 669
e 23 715
e 23 783
e 23 908
e 23 944
e 24 330
e 24 557
e 24 812
e 24 904
e 24 912
e 24 937
e 25 364
e 25 491
e 25 526
e 25 535
e 25 734
e 25 828
e 25 888
e 25 913
e 25 929
e 25 959
e 26 293
e 26 503
e 26 650
e 26 777
e 26 820
e 26 866
e 27 307
e 27 339
e 27 468
e 27 788
e 27 954
e 27 976
e 28 294
e 28 485
e 28 524
e 28 893
e 29 272
e 29 366
e 29 425
e 29 637
e 29 693
e 29 762
e 29 846
e 30 270
e 30 428
e 30 443
e 30 662
e 30 728
e 30 937
e 31 401
e 31 550
e 31 591
e 31 701
e 31 926
e 32 337
e 32 553
e 32 650
e 32 712
e 32 771
e 32 915
e 33 389
e 33 576
e 33 660
e 33 782
e 33 963
e 34 474
e 34 498
e 34 505
e 34 512
e 34 625
e 34 730
e 34 793
e 34 983
e 35 414
e 35 609
e 35 630
e 35 676
e 35 710
e 35 902
e 35 909
e 35 943
e 35 959
e 36 361
e 36 378
e 36 418
e 36 485
e 36 490
e 36 562
e 36 643
e 36 653
e 36 680
e 36 728
e 36 840
e 36 862
e 36 876
e 36 945
e 37 389
e 37 431
e 37 503
e 37 692
e 37 703
e 37 729
e 37 781
e 37 998
e 38 328
e 38 429
e 38 455
e 38 461
e 38 552
e 38 666
e 38 679
e 38 798
e 38 883
e 38 943
e 39 274
e 39 446
e 39 577
e 39 859
e 40 338
e 40 368
e 40 520
e 40 592
e 40 705
e 41 341
e 41 414
e 41 584
e 41 645
e 41 793
e 42 251
e 42 304
e 42 328
e 42 336
e 42 542
e 42 709
e 42 991
e 43 261
e 43 454
e 43 509
e 43 545
e 43 638
e 43 715
e 43 748
e 43 752
e 43 763
e 43 865
e 43 975
e 44 442
e 44 474
e 44 571
e 44 657
e 44 837
e 44 848
e 44 955
e 45 609
e 45 639
e 45 712
e 45 784
e 45 785
e 45 840
e 45 869
e 45 934
e 45 956
e 45 970
e 45 983
e 46 270
e 46 432
e 46 517
e 46 560
e 46 638
e 46 828
e 46 853
e 47 251
e 47 464
e 47 730
e 47 742
e 47 816
e 47 947
e 47 995
e 48 303
e 48 504
e 48 544
e 48 649
e 49 294
e 49 443
e 49 495
e 49 813
e 49 893
e 50 820
e 50 824
e 50 960
e 51 266
e 51 492
e 51 518
e 51 820
e 51 871
e 51 950
e 51 981
e 52 321
e 52 399
e 52 548
e 52 641
e 52 644
e 52 755
e 52 771
e 52 871
e 52 891
e 53 296
e 53 380
e 53 398
e 53 426
e 53 588
e 53 683
e 53 703
e 54 268
e 54 326
e 54 770
e 54 803
e 54 850
e 54 868
e 55 270
e 55 474
e 55 558
e 55 626
e 55 676
e 55 714
e 55 844
e 55 969
e 56 275
e 56 496
e 56 576
e 56 651
e 56 731
e 56 741
e 56 842
e 56 857
e 56 937
e 56 1000
e 57 266
e 57 481
e 57 524
e 57 582
e 57 634
e 57 662
e 57 685
e 57 759
e 57 804
e 57 872
e 58 256
e 58 265
e 58 433
e 58 518
e 58 589
e 58 706
e 58 724
e 58 872
e 59 352
e 59 392
e 59 483
e 59 734
e 59 898
e 59 906
e 59 973
e 59 988
e 60 264
e 60 410
e 60 419
e 60 504
e 60 568
e 60 632
e 60 665
e 60 752
e 60 846
e 60 891
e 60 895
e 60 901
e 61 386
e 61 387
e 61 390
e 61 536
e 61 705
e 61 748
e 61 883
e 61 950
e 61 983
e 62 272
e 62 280
e 62 401
e 62 479
e 62 541
e 62 607
e 62 624
e 62 705
e 62 844
e 62 943
e 62 957
e 62 958
e 62 960
e 63 342
e 63 448
e 63 546
e 63 712
e 63 820
e 63 842
e 63 853
e 63 883
e 63 909
e 63 945
e 64 347
e 64 368
e 64 529
e 64 540
e 64 573
e 64 583
e 64 614
e 64 643
e 64 691
e 64 736
e 64 747
e 64 796
e 64 825
e 64 996
e 65 265
e 65 355
e 65 375
e 65 481
e 65 531
e 65 712
e 65 822
e 65 858
e 65 991
e 66 404
e 66 622
e 66 704
e 66 708
e 67 317
e 67 332
e 67 399
e 67 448
e 67 527
e 67 604
e 67 611
e 67 925
e 68 355
e 68 452
e 68 623
e 69 318
e 69 375
e 69 397
e 69 675
e 69 696
e 69 768
e 69 899
e 70 272
e 70 378
e 70 390
e 70 402
e 70 523
e 70 647
e 70 686
e 70 866
e 70 963
e 71 273
e 71 543
e 71 790
e 72 332
e 72 409
e 72 424
e 72 524
e 72 536
e 72 625
e 72 639
e 72 643
e 72 778
e 72 796
e 72 853
e 73 277
e 73 426
e 73 465
e 73 504
e 73 534
e 73 559
e 73 601
e 73 618
e 73 720
e 73 731
e 73 897
e 73 916
e 73 947
e 74 363
e 74 572
e 74 631
e 74 642
e 74 824
e 74 890
e 74 891
e 74 907
e 75 346
e 75 475
e 75 523
e 75 577
e 75 605
e 75 620
e 75 756
e 75 759
e 75 784
e 75 820
e 75 891
e 75 908
e 75 979
e 76 474
e 76 481
e 76 507
e 76 933
e 77 373
e 77 563
e 77 712
e 77 748
e 77 911
e 78 518
e 78 592
e 78 644
e 78 753
e 78 928
e 79 340
e 79 403
e 79 586
e 79 764
e 79 811
e 80 400
e 80 446
e 80 466
e 80 537
e 80 615
e 80 676
e 80 907
e 80 992
e 81 368
e 81 373
e 81 426
e 81 465
e 81 471
e 81 621
e 81 921
e 81 926
e 81 940
e 81 994
e 82 285
e 82 400
e 82 539
e 82 596
e 82 719
e 82 734
e 82 932
e 83 404
e 83 602
e 83 772
e 83 776
e 83 858
e 83 917
e 84 321
e 84 671
e 84 833
e 84 942
e 84 972
e 84 994
e 85 290
e 85 303
e 85 404
e 85 420
e 85 425
e 85 539
e 85 552
e 85 864
e 85 955
e 86 604
e 86 616
e 86 628
e 86 728
e 86 781
e 86 793
e 86 802
e 86 836
e 86 837
e 86 838
e 86 931
e 86 965
e 86 966
e 87 293
e 87 301
e 87 502
e 87 581
e 87 690
e 87 714
e 87 909
e 88 392
e 88 797
e 88 823
e 88 826
e 88 968
e 89 312
e 89 631
e 89 773
e 89 827
e 90 579
e 90 605
e 90 725
e 90 786
e 91 545
e 91 565
e 91 673
e 91 689
e 91 874
e 92 258
e 92 364
e 92 443
e 92 561
e 92 584
e 92 656
e 92 726
e 92 776
e 92 807
e 92 923
e 93 309
e 93 477
e 93 492
e 93 522
e 93 645
e 93 647
e 93 708
e 93 786
e 93 969
e 94 287
e 94 528
e 94 579
e 94 794
e 94 808
e 94 909
e 95 282
e 95 327
e 95 339
e 95 961
e 96 284
e 96 346
e 96 358
e 96 398
e 96 429
e 96 634
e 96 892
e 96 947
e 97 417
e 97 648
e 97 673
e 97 768
e 97 876
e 98 319
e 98 389
e 98 711
e 98 757
e 99 302
e 99 458
e 99 479
e 99 653
e 99 718
e 99 766
e 99 779
e 100 572
e 100 613
e 100 645
e 100 675
e 100 692
e 100 796
e 100 829
e 100 905
e 101 299
e 101 411
e 101 491
e 102 404
e 102 427
e 102 479
e 102 589
e 102 935
e 103 256
e 103 379
e 103 387
e 103 494
e 103 591
e 103 881
e 103 987
e 103 991
e 104 366
e 104 426
e 104 469
e 104 483
e 104 499
e 104 664
e 104 698
e 104 748
e 104 762
e 104 906
e 104 982
e 105 278
e 105 282
e 105 413
e 105 606
e 105 642
e 105 737
e 106 455
e 106 459
e 106 531
e 106 547
e 106 567
e 106 718
e 106 740
e 106 930
e 106 961
e 107 382
e 107 778
e 107 807
e 107 902
e 107 956
e 108 263
e 108 264
e 108 360
e 108 417
e 108 459
e 108 550
e 108 685
e 108 755
e 108 940
e 108 989
e 109 341
e 109 536
e 109 975
e 110 278
e 110 337
e 110 755
e 111 375
e 111 494
e 111 499
e 111 566
e 111 598
e 111 669
e 111 812
e 111 938
e 111 952
e 112 253
e 112 366
e 112 465
e 112 497
e 112 581
e 112 623
e 112 640
e 112 651
e 113 318
e 113 387
e 113 407
e 113 492
e 113 514
e 113 721
e 113 786
e 113 906
e 114 257
e 114 378
e 114 502
e 114 734
e 114 742
e 114 951
e 115 285
e 115 311
e 115 336
e 115 358
e 115 424
e 115 502
e 115 687
e 115 704
e 115 828
e 115 851
e 116 432
e 116 540
e 116 545
e 116 820
e 116 969
e 117 476
e 117 541
e 117 551
e 117 591
e 117 612
e 117 679
e 117 695
e 117 750
e 117 882
e 118 276
e 118 407
e 118 499
e 118 540
e 118 722
e 118 747
e 118 849
e 118 902
e 118 910
e 118 981
e 119 264
e 119 271
e 119 302
e 119 347
e 119 581
e 119 640
e 119 658
e 119 731
e 119 854
e 120 335
e 120 395
e 120 460
e 120 471
e 120 651
e 120 806
e 120 957
e 121 416
e 121 485
e 121 604
e 121 739
e 121 964
e 122 268
e 122 481
e 122 527
e 122 581
e 122 766
e 122 868
e 122 965
e 122 999
e 123 502
e 123 506
e 123 649
e 123 658
e 123 742
e 123 764
e 123 791
e 123 799
e 124 357
e 124 403
e 124 413
e 124 447
e 124 501
e 124 758
e 125 333
e 125 344
e 125 515
e 125 545
e 125 553
e 125 561
e 125 630
e 125 657
e 125 788
e 125 791
e 126 251
e 126 468
e 126 661
e 126 897
e 126 955
e 126 962
e 127 252
e 127 324
e 127 326
e 127 356
e 127 491
e 127 751
e 127 856
e 127 895
e 128 379
e 128 573
e 128 744
e 129 440
e 129 443
e 129 526
e 129 595
e 129 689
e 129 898
e 129 935
e 129 936
e 129 977
e 130 265
e 130 282
e 130 310
e 130 324
e 130 334
e 130 384
e 130 465
e 130 492
e 130 660
e 130 878
e 131 253
e 131 357
e 131 376
e 131 487
e 131 585
e 132 424
e 132 436
e 132 769
e 132 773
e 132 787
e 132 974
e 133 261
e 133 957
e 134 268
e 134 291
e 134 305
e 134 791
e 134 801
e 134 822
e 134 854
e 134 975
e 135 258
e 135 294
e 135 402
e 135 549
e 135 564
e 135 669
e 135 714
e 135 720
e 135 747
e 135 769
e 136 320
e 136 422
e 136 515
e 136 585
e 136 693
e 136 801
e 137 339
e 137 608
e 137 777
e 137 801
e 137 811
e 137 826
e 137 864
e 137 1000
e 138 469
e 138 487
e 138 548
e 138 588
e 138 617
e 138 832
e 138 912
e 138 929
e 139 251
e 139 408
e 139 488
e 139 522
e 139 554
e 139 578
e 139 633
e 139 788
e 140 307
e 140 424
e 140 544
e 140 550
e 140 620
e 140 639
e 140 770
e 140 790
e 140 910
e 140 929
e 140 934
e 141 377
e 141 799
e 141 913
e 141 928
e 141 982
e 142 328
e 142 453
e 142 459
e 142 550
e 142 684
e 142 728
e 142 732
e 143 317
e 143 399
e 143 540
e 143 606
e 143 717
e 143 778
e 143 796
e 144 276
e 144 304
e 144 396
e 144 418
e 144 566
e 144 738
e 144 879
e 144 928
e 144 944
e 145 443
e 145 448
e 145 558
e 145 595
e 145 851
e 145 862
e 145 899
e 145 918
e 146 276
e 146 326
e 146 336
e 146 374
e 146 420
e 146 492
e 146 508
e 146 571
e 146 596
e 146 603
e 147 289
e 147 310
e 147 399
e 147 404
e 147 442
e 147 499
e 147 830
e 147 929
e 148 365
e 148 465
e 148 500
e 148 553
e 148 694
e 148 699
e 148 963
e 149 388
e 149 498
e 149 613
e 149 785
e 149 875
e 149 967
e 150 589
e 150 595
e 150 672
e 150 708
e 150 793
e 150 855
e 150 882
e 151 418
e 151 869
e 151 911
e 151 931
e 152 251
e 152 355
e 152 486
e 152 492
e 152 511
e 152 782
e 152 813
e 152 958
e 152 974
e 153 439
e 153 561
e 153 654
e 153 918
e 154 281
e 154 284
e 154 308
e 154 389
e 154 521
e 154 599
e 154 664
e 154 703
e 154 725
e 154 807
e 154 953
e 155 436
e 155 677
e 155 723
e 155 816
e 156 403
e 156 478
e 156 487
e 156 637
e 156 697
e 156 876
e 156 883
e 156 943
e 157 265
e 157 288
e 157 366
e 157 492
e 157 496
e 157 753
e 158 276
e 158 380
e 158 434
e 158 511
e 158 592
e 158 673
e 158 674
e 158 681
e 158 750
e 158 858
e 158 941
e 158 967
e 159 269
e 159 319
e 159 326
e 159 420
e 159 421
e 159 528
e 159 547
e 159 644
e 159 907
e 159 934
e 160 337
e 160 385
e 160 559
e 161 284
e 161 372
e 161 442
e 161 607
e 162 422
e 162 541
e 162 558
e 162 598
e 162 621
e 162 649
e 162 727
e 162 761
e 162 762
e 162 790
e 162 873
e 163 449
e 163 531
e 163 608
e 163 700
e 163 838
e 163 928
e 163 955
e 164 381
e 164 399
e 164 505
e 164 620
e 164 634
e 164 652
e 164 902
e 165 286
e 165 367
e 165 400
e 165 438
e 165 729
e 165 967
e 166 299
e 166 349
e 166 480
e 166 563
e 166 588
e 166 657
e 166 753
e 166 839
e 166 874
e 167 486
e 167 519
e 167 766
e 167 982
e 168 314
e 168 401
e 168 412
e 168 720
e 168 737
e 168 761
e 168 887
e 168 920
e 169 440
e 169 578
e 169 623
e 169 766
e 169 997
e 170 306
e 170 349
e 170 423
e 170 493
e 170 645
e 170 973
e 171 377
e 171 394
e 171 489
e 171 794
e 171 819
e 172 278
e 172 512
e 172 540
e 172 976
e 173 319
e 173 385
e 173 625
e 173 759
e 173 797
e 174 382
e 174 465
e 174 478
e 174 582
e 174 639
e 174 722
e 174 883
e 174 925
e 175 626
e 175 646
e 175 740
e 175 852
e 175 915
e 176 282
e 176 366
e 176 441
e 176 456
e 176 524
e 176 564
e 176 610
e 176 613
e 176 625
e 176 801
e 177 583
e 177 891
e 178 294
e 178 376
e 178 378
e 178 489
e 178 534
e 178 931
e 178 980
e 179 380
e 179 545
e 179 772
e 179 777
e 179 842
e 179 844
e 180 270
e 180 384
e 180 480
e 180 513
e 180 543
e 180 591
e 180 824
e 180 842
e 180 920
e 180 979
e 180 995
e 181 254
e 181 263
e 181 276
e 181 342
e 181 410
e 181 424
e 181 482
e 181 613
e 181 800
e 181 809
e 181 852
e 181 893
e 181 897
e 181 984
e 181 994
e 182 261
e 182 274
e 182 576
e 182 698
e 182 720
e 182 727
e 182 745
e 182 886
e 182 933
e 182 968
e 182 976
e 183 285
e 183 482
e 183 590
e 184 266
e 184 413
e 184 622
e 184 731
e 184 734
e 184 814
e 184 969
e 185 285
e 185 348
e 185 470
e 185 496
e 185 524
e 185 695
e 185 787
e 186 320
e 186 395
e 186 475
e 186 501
e 186 591
e 186 718
e 186 728
e 186 741
e 186 810
e 187 435
e 187 676
e 187 789
e 187 802
e 188 289
e 188 517
e 188 822
e 188 919
e 189 283
e 189 324
e 189 520
e 189 642
e 189 689
e 189 760
e 189 807
e 189 826
e 189 902
e 189 933
e 190 587
e 190 598
e 190 745
e 190 781
e 190 922
e 191 262
e 191 307
e 191 445
e 191 512
e 191 529
e 191 541
e 191 651
e 191 676
e 191 707
e 191 792
e 191 874
e 191 914
e 191 958
e 192 251
e 192 488
e 192 500
e 192 601
e 192 623
e 192 791
e 192 799
e 192 839
e 192 888
e 193 419
e 193 432
e 194 540
e 194 579
e 194 629
e 194 781
e 194 847
e 195 384
e 195 421
e 195 438
e 195 627
e 195 816
e 195 925
e 196 267
e 196 397
e 196 731
e 196 784
e 196 804
e 196 809
e 196 815
e 196 947
e 196 980
e 197 252
e 197 291
e 197 404
e 197 604
e 197 745
e 197 798
e 197 894
e 198 423
e 198 496
e 198 674
e 198 979
e 199 496
e 199 512
e 199 745
e 199 782
e 199 861
e 199 942
e 199 993
e 200 486
e 200 736
e 200 768
e 200 784
e 200 846
e 200 892
e 201 275
e 201 597
e 201 628
e 201 717
e 201 733
e 201 933
e 202 388
e 202 452
e 202 495
e 202 550
e 202 585
e 202 723
e 202 914
e 202 927
e 203 276
e 203 353
e 203 498
e 203 661
e 203 674
e 203 748
e 203 807
e 204 496
e 204 502
e 204 693
e 204 839
e 205 256
e 205 345
e 205 390
e 205 463
e 205 581
e 205 583
e 205 752
e 205 759
e 205 833
e 205 993
e 206 313
e 206 752
e 206 836
e 206 838
e 207 262
e 207 357
e 207 471
e 207 681
e 207 931
e 207 972
e 208 276
e 208 320
e 208 389
e 208 427
e 208 488
e 208 529
e 208 592
e 208 758
e 208 944
e 209 415
e 209 419
e 209 523
e 209 785
e 209 797
e 209 818
e 209 822
e 209 924
e 209 950
e 210 331
e 210 863
e 210 937
e 210 961
e 210 983
e 211 251
e 211 535
e 211 609
e 211 692
e 211 706
e 211 718
e 211 817
e 211 849
e 211 850
e 212 385
e 212 412
e 212 737
e 212 844
e 212 929
e 213 325
e 213 366
e 213 717
e 213 735
e 213 917
e 214 457
e 214 650
e 214 688
e 214 743
e 214 745
e 214 914
e 214 968
e 215 356
e 215 386
e 215 396
e 215 823
e 215 855
e 215 989
e 216 260
e 216 362
e 216 498
e 216 619
e 216 656
e 216 769
e 216 796
e 216 985
e 217 511
e 217 581
e 217 624
e 217 808
e 217 838
e 218 279
e 218 500
e 218 588
e 218 611
e 218 623
e 218 701
e 218 715
e 218 746
e 218 859
e 219 269
e 219 283
e 219 381
e 219 391
e 219 412
e 219 521
e 219 524
e 219 547
e 219 563
e 219 621
e 219 762
e 220 353
e 220 407
e 220 659
e 220 664
e 220 739
e 220 786
e 220 819
e 221 291
e 221 500
e 221 917
e 221 959
e 222 274
e 222 364
e 222 599
e 222 683
e 222 816
e 222 902
e 222 926
e 223 387
e 223 531
e 223 576
e 223 609
e 223 649
e 223 811
e 224 443
e 224 624
e 224 643
e 224 649
e 224 847
e 224 1000
e 225 261
e 225 361
e 225 409
e 225 467
e 225 630
e 225 636
e 225 637
e 225 648
e 225 662
e 225 854
e 226 302
e 226 531
e 226 793
e 226 881
e 226 984
e 227 262
e 227 285
e 227 350
e 227 448
e 227 465
e 227 478
e 227 503
e 227 516
e 227 537
e 227 681
e 227 794
e 227 808
e 227 859
e 228 605
e 228 647
e 228 683
e 228 687
e 228 692
e 228 782
e 228 821
e 228 927
e 228 944
e 228 978
e 229 255
e 229 293
e 229 375
e 229 468
e 229 606
e 229 796
e 229 882
e 229 921
e 230 458
e 230 468
e 230 478
e 230 618
e 230 711
e 230 749
e 230 774
e 230 821
e 230 984
e 231 382
e 231 423
e 231 429
e 231 438
e 231 461
e 231 611
e 231 648
e 231 807
e 231 881
e 231 978
e 232 438
e 232 596
e 232 690
e 233 321
e 233 366
e 233 396
e 233 633
e 233 640
e 233 876
e 233 957
e 234 404
e 234 407
e 234 461
e 234 471
e 234 559
e 234 749
e 234 837
e 234 874
e 235 536
e 235 556
e 235 724
e 235 771
e 235 860
e 235 930
e 236 331
e 236 624
e 236 703
e 236 706
e 236 902
e 236 908
e 236 984
e 237 318
e 237 332
e 237 388
e 237 411
e 237 492
e 237 503
e 237 535
e 237 580
e 237 740
e 237 961
e 238 298
e 238 395
e 238 582
e 238 828
e 238 970
e 239 279
e 239 376
e 239 468
e 239 656
e 239 754
e 239 867
e 239 909
e 240 251
e 240 298
e 240 340
e 240 501
e 240 563
e 240 703
e 240 785
e 240 789
e 240 810
e 240 832
e 240 879
e 240 967
e 241 330
e 241 444
e 241 661
e 241 693
e 241 772
e 241 847
e 242 425
e 242 560
e 242 578
e 242 759
e 242 805
e 242 912
e 242 935
e 242 980
e 242 1000
e 243 311
e 243 320
e 243 509
e 243 583
e 243 683
e 243 852
e 244 325
e 244 452
e 244 542
e 244 602
e 244 603
e 244 688
e 244 692
e 244 856
e 244 990
e 245 405
e 245 484
e 245 504
e 245 736
e 245 753
e 245 772
e 245 889
e 246 344
e 246 456
e 246 612
e 246 710
e 246 717
e 246 719
e 246 736
e 246 762
e 246 827
e 246 832
e 246 994
e 247 283
e 247 330
e 247 364
e 247 395
e 247 446
e 247 577
e 247 618
e 247 622
e 247 637
e 247 721
e 247 799
e 247 819
e 247 820
e 248 315
e 248 384
e 248 399
e 248 540
e 248 600
e 248 720
e 248 745
e 248 819
e 248 830
e 248 940
e 249 265
e 249 478
e 249 550
e 249 652
e 249 682
e 249 933
e 249 937
e 250 328
e 250 455
e 250 587
e 250 594
e 250 977
e 250 988
