p edge 1000 5589
e 1 291
e 1 305
e 1 378
e 1 433
e 1 443
e 1 453
e 1 570
e 1 588
e 1 644
e 1 677
e 1 715
e 1 769
e 1 803
e 1 819
e 1 866
e 1 896
e 2 280
e 2 283
e 2 353
e 2 373
e 2 381
e 2 397
e 2 407
e 2 411
e 2 436
e 2 443
e 2 448
e 2 458
e 2 471
e 2 505
e 2 526
e 2 593
e 2 664
e 2 665
e 2 705
e 2 709
e 2 727
e 2 754
e 2 819
e 2 852
e 2 870
e 2 885
e 2 920
e 2 997
e 2 998
e 3 251
e 3 276
e 3 334
e 3 384
e 3 402
e 3 474
e 3 478
e 3 539
e 3 591
e 3 630
e 3 634
e 3 647
e 3 667
e 3 689
e 3 734
e 3 744
e 3 784
e 3 788
e 3 841
e 3 842
e 3 844
e 3 845
e 3 890
e 3 938
e 3 940
e 3 948
e 3 976
e 4 288
e 4 329
e 4 332
e 4 364
e 4 379
e 4 560
e 4 589
e 4 620
e 4 630
e 4 687
e 4 732
e 4 785
e 4 924
e 5 259
e 5 297
e 5 299
e 5 334
e 5 355
e 5 460
e 5 510
e 5 528
e 5 545
e 5 552
e 5 559
e 5 592
e 5 622
e 5 656
e 5 706
e 5 726
e 5 735
e 5 747
e 5 759
e 5 778
e 5 801
e 5 860
e 5 937
e 5 945
e 5 969
e 5 985
e 5 1000
e 6 288
e 6 373
e 6 385
e 6 425
e 6 503
e 6 505
e 6 557
e 6 578
e 6 586
e 6 630
e 6 674
e 6 727
e 6 767
e 6 783
e 6 820
e 6 822
e 6 846
e 6 897
e 6 949
e 6 957
e 6 998
e 7 284
e 7 299
e 7 313
e 7 334
e 7 413
e 7 420
e 7 505
e 7 561
e 7 575
e 7 598
e 7 611
e 7 623
e 7 734
e 7 744
e 7 812
e 7 877
e 7 925
e 7 927
e 7 929
e 7 934
e 7 980
e 8 264
e 8 283
e 8 317
e 8 362
e 8 468
e 8 474
e 8 484
e 8 504
e 8 525
e 8 562
e 8 579
e 8 634
e 8 678
e 8 682
e 8 710
e 8 712
e 8 790
e 8 832
e 8 849
e 8 850
e 8 906
e 8 914
e 8 959
e 9 252
e 9 391
e 9 392
e 9 429
e 9 455
e 9 521
e 9 545
e 9 548
e 9 683
e 9 751
e 9 758
e 9 812
e 9 815
e 9 842
e 9 858
e 9 877
e 9 889
e 9 896
e 9 925
e 9 936
e 10 257
e 10 276
e 10 281
e 10 292
e 10 298
e 10 390
e 10 580
e 10 603
e 10 604
e 10 743
e 10 778
e 10 855
e 10 871
e 10 874
e 10 879
e 10 891
e 10 964
e 10 969
e 11 278
e 11 286
e 11 293
e 11 378
e 11 413
e 11 422
e 11 435
e 11 454
e 11 514
e 11 520
e 11 549
e 11 582
e 11 612
e 11 637
e 11 693
e 11 702
e 11 713
e 11 726
e 11 736
e 11 757
e 11 838
e 11 909
e 11 946
e 12 289
e 12 313
e 12 371
e 12 434
e 12 491
e 12 656
e 12 657
e 12 677
e 12 715
e 12 737
e 12 752
e 12 778
e 12 793
e 12 824
e 12 837
e 12 860
e 12 861
e 12 868
e 12 888
e 12 896
e 12 984
e 13 253
e 13 265
e 13 287
e 13 348
e 13 391
e 13 495
e 13 499
e 13 508
e 13 525
e 13 543
e 13 553
e 13 557
e 13 560
e 13 566
e 13 651
e 13 691
e 13 739
e 13 817
e 13 840
e 13 875
e 13 902
e 13 954
e 13 988
e 13 995
e 14 298
e 14 348
e 14 376
e 14 386
e 14 414
e 14 421
e 14 478
e 14 540
e 14 562
e 14 571
e 14 652
e 14 663
e 14 674
e 14 685
e 14 702
e 14 707
e 14 732
e 14 745
e 14 837
e 14 899
e 14 922
e 14 923
e 14 961
e 14 985
e 14 993
e 15 284
e 15 324
e 15 341
e 15 383
e 15 423
e 15 473
e 15 491
e 15 531
e 15 663
e 15 677
e 15 693
e 15 737
e 15 754
e 15 775
e 15 811
e 15 826
e 15 937
e 15 958
e 15 964
e 15 1000
e 16 294
e 16 304
e 16 311
e 16 339
e 16 422
e 16 436
e 16 445
e 16 463
e 16 481
e 16 493
e 16 510
e 16 531
e 16 552
e 16 606
e 16 612
e 16 627
e 16 693
e 16 719
e 16 758
e 16 762
e 16 843
e 16 863
e 16 887
e 16 997
e 17 258
e 17 293
e 17 337
e 17 363
e 17 402
e 17 476
e 17 499
e 17 587
e 17 598
e 17 616
e 17 658
e 17 669
e 17 697
e 17 724
e 17 751
e 17 756
e 17 766
e 17 818
e 17 824
e 17 834
e 17 918
e 17 955
e 17 960
e 18 251
e 18 260
e 18 304
e 18 316
e 18 340
e 18 375
e 18 384
e 18 387
e 18 435
e 18 441
e 18 458
e 18 479
e 18 480
e 18 483
e 18 513
e 18 520
e 18 522
e 18 549
e 18 561
e 18 567
e 18 640
e 18 646
e 18 709
e 18 734
e 18 799
e 18 837
e 18 903
e 18 910
e 18 936
e 18 968
e 18 990
e 19 286
e 19 287
e 19 424
e 19 445
e 19 481
e 19 483
e 19 488
e 19 537
e 19 737
e 19 778
e 19 862
e 19 864
e 19 945
e 19 975
e 20 265
e 20 266
e 20 298
e 20 348
e 20 349
e 20 378
e 20 399
e 20 415
e 20 441
e 20 474
e 20 498
e 20 505
e 20 597
e 20 603
e 20 685
e 20 720
e 20 735
e 20 786
e 20 794
e 20 920
e 20 972
e 20 977
e 21 321
e 21 322
e 21 349
e 21 352
e 21 376
e 21 387
e 21 405
e 21 457
e 21 484
e 21 505
e 21 583
e 21 610
e 21 628
e 21 687
e 21 718
e 21 761
e 21 769
e 21 770
e 21 838
e 21 854
e 21 855
e 21 879
e 21 911
e 21 967
e 21 979
e 22 255
e 22 289
e 22 290
e 22 343
e 22 355
e 22 369
e 22 395
e 22 403
e 22 481
e 22 511
e 22 639
e 22 644
e 22 730
e 22 732
e 22 789
e 22 806
e 22 842
e 22 891
e 22 928
e 22 998
e 23 311
e 23 337
e 23 356
e 23 363
e 23 365
e 23 427
e 23 483
e 23 501
e 23 509
e 23 529
e 23 623
e 23 634
e 23 652
e 23 844
e 23 902
e 23 930
e 23 980
e 23 982
e 24 261
e 24 264
e 24 273
e 24 289
e 24 294
e 24 307
e 24 312
e 24 313
e 24 321
e 24 331
e 24 349
e 24 359
e 24 392
e 24 393
e 24 398
e 24 433
e 24 475
e 24 497
e 24 530
e 24 541
e 24 708
e 24 735
e 24 744
e 24 833
e 24 871
e 24 929
e 24 962
e 24 974
e 24 975
e 24 991
e 24 994
e 25 281
e 25 428
e 25 440
e 25 452
e 25 556
e 25 569
e 25 622
e 25 630
e 25 635
e 25 680
e 25 727
e 25 806
e 25 814
e 25 842
e 25 857
e 25 919
e 25 932
e 26 306
e 26 469
e 26 471
e 26 533
e 26 623
e 26 635
e 26 653
e 26 662
e 26 666
e 26 689
e 26 711
e 26 717
e 26 789
e 26 791
e 26 799
e 26 829
e 26 915
e 26 976
e 26 995
e 27 301
e 27 324
e 27 346
e 27 393
e 27 438
e 27 457
e 27 477
e 27 490
e 27 510
e 27 562
e 27 621
e 27 686
e 27 693
e 27 698
e 27 699
e 27 744
e 27 818
e 27 833
e 27 879
e 27 961
e 27 974
e 27 1000
e 28 272
e 28 306
e 28 317
e 28 339
e 28 344
e 28 347
e 28 439
e 28 458
e 28 476
e 28 501
e 28 504
e 28 545
e 28 633
e 28 910
e 28 916
e 28 989
e 29 345
e 29 346
e 29 353
e 29 355
e 29 366
e 29 459
e 29 544
e 29 560
e 29 626
e 29 665
e 29 672
e 29 766
e 29 782
e 29 798
e 29 804
e 29 816
e 29 925
e 29 939
e 29 959
e 29 963
e 30 252
e 30 257
e 30 271
e 30 288
e 30 299
e 30 356
e 30 358
e 30 359
e 30 364
e 30 402
e 30 413
e 30 415
e 30 431
e 30 480
e 30 543
e 30 638
e 30 640
e 30 650
e 30 697
e 30 727
e 30 737
e 30 739
e 30 757
e 30 771
e 30 881
e 30 904
e 30 924
e 30 933
e 30 938
e 31 258
e 31 301
e 31 463
e 31 596
e 31 695
e 31 824
e 31 852
e 32 259
e 32 269
e 32 320
e 32 411
e 32 418
e 32 461
e 32 462
e 32 473
e 32 476
e 32 518
e 32 525
e 32 549
e 32 562
e 32 592
e 32 637
e 32 698
e 32 728
e 32 753
e 32 788
e 32 833
e 32 878
e 32 936
e 32 947
e 32 992
e 32 995
e 33 293
e 33 346
e 33 392
e 33 398
e 33 402
e 33 439
e 33 452
e 33 510
e 33 573
e 33 624
e 33 630
e 33 703
e 33 774
e 33 778
e 33 811
e 33 812
e 33 907
e 33 930
e 33 957
e 34 259
e 34 267
e 34 308
e 34 309
e 34 396
e 34 411
e 34 431
e 34 443
e 34 527
e 34 544
e 34 553
e 34 612
e 34 621
e 34 641
e 34 674
e 34 696
e 34 800
e 34 870
e 34 927
e 34 969
e 35 351
e 35 432
e 35 447
e 35 471
e 35 489
e 35 530
e 35 531
e 35 609
e 35 613
e 35 629
e 35 658
e 35 668
e 35 670
e 35 747
e 35 749
e 35 791
e 35 804
e 35 855
e 35 856
e 35 873
e 35 912
e 35 918
e 35 929
e 35 941
e 35 947
e 36 278
e 36 314
e 36 316
e 36 442
e 36 501
e 36 558
e 36 601
e 36 683
e 36 688
e 36 733
e 36 789
e 36 815
e 36 822
e 36 871
e 36 895
e 36 967
e 37 322
e 37 328
e 37 404
e 37 427
e 37 446
e 37 533
e 37 568
e 37 607
e 37 660
e 37 721
e 37 765
e 37 774
e 37 862
e 37 894
e 37 909
e 37 960
e 37 986
e 38 262
e 38 300
e 38 322
e 38 326
e 38 333
e 38 376
e 38 381
e 38 385
e 38 389
e 38 402
e 38 409
e 38 431
e 38 475
e 38 499
e 38 577
e 38 629
e 38 665
e 38 677
e 38 845
e 38 880
e 38 890
e 38 978
e 38 981
e 38 995
e 39 364
e 39 440
e 39 461
e 39 525
e 39 526
e 39 681
e 39 702
e 39 732
e 39 824
e 39 857
e 39 896
e 40 262
e 40 324
e 40 395
e 40 401
e 40 408
e 40 429
e 40 441
e 40 512
e 40 534
e 40 646
e 40 723
e 40 731
e 40 768
e 40 833
e 40 897
e 40 923
e 40 931
e 40 933
e 40 946
e 41 282
e 41 313
e 41 412
e 41 472
e 41 494
e 41 512
e 41 548
e 41 551
e 41 597
e 41 645
e 41 708
e 41 719
e 41 777
e 41 803
e 41 837
e 41 845
e 41 846
e 41 858
e 41 859
e 41 873
e 41 929
e 41 934
e 41 993
e 42 287
e 42 292
e 42 335
e 42 340
e 42 370
e 42 453
e 42 459
e 42 465
e 42 682
e 42 735
e 42 769
e 42 775
e 42 863
e 42 881
e 42 918
e 42 920
e 42 925
e 42 983
e 43 278
e 43 399
e 43 412
e 43 417
e 43 419
e 43 424
e 43 427
e 43 453
e 43 537
e 43 589
e 43 602
e 43 612
e 43 630
e 43 632
e 43 664
e 43 677
e 43 688
e 43 700
e 43 728
e 43 756
e 43 796
e 43 893
e 43 929
e 43 951
e 43 969
e 43 991
e 44 253
e 44 255
e 44 256
e 44 287
e 44 303
e 44 314
e 44 326
e 44 352
e 44 462
e 44 471
e 44 494
e 44 533
e 44 542
e 44 547
e 44 556
e 44 662
e 44 667
e 44 673
e 44 704
e 44 753
e 44 762
e 44 868
e 44 935
e 44 937
e 44 944
e 45 285
e 45 331
e 45 382
e 45 425
e 45 496
e 45 520
e 45 534
e 45 589
e 45 601
e 45 613
e 45 623
e 45 691
e 45 712
e 45 759
e 45 885
e 45 901
e 45 938
e 45 977
e 45 979
e 46 258
e 46 271
e 46 276
e 46 297
e 46 326
e 46 333
e 46 406
e 46 428
e 46 448
e 46 466
e 46 493
e 46 504
e 46 530
e 46 595
e 46 683
e 46 704
e 46 707
e 46 724
e 46 741
e 46 750
e 46 761
e 46 796
e 46 865
e 46 873
e 46 936
e 46 943
e 46 957
e 46 970
e 46 989
e 46 997
e 46 998
e 47 277
e 47 294
e 47 358
e 47 392
e 47 409
e 47 431
e 47 558
e 47 583
e 47 594
e 47 622
e 47 634
e 47 693
e 47 704
e 47 712
e 47 728
e 47 843
e 47 881
e 47 882
e 47 897
e 47 946
e 47 947
e 47 978
e 48 264
e 48 314
e 48 351
e 48 383
e 48 428
e 48 439
e 48 476
e 48 494
e 48 576
e 48 593
e 48 601
e 48 668
e 48 711
e 48 809
e 48 813
e 48 830
e 48 862
e 48 872
e 48 951
e 48 956
e 49 283
e 49 328
e 49 331
e 49 335
e 49 493
e 49 535
e 49 540
e 49 581
e 49 621
e 49 687
e 49 688
e 49 701
e 49 721
e 49 757
e 49 845
e 49 885
e 49 934
e 49 995
e 50 301
e 50 304
e 50 399
e 50 481
e 50 516
e 50 569
e 50 617
e 50 637
e 50 639
e 50 666
e 50 680
e 50 714
e 50 762
e 50 801
e 50 960
e 50 981
e 51 264
e 51 275
e 51 300
e 51 356
e 51 357
e 51 377
e 51 384
e 51 431
e 51 464
e 51 465
e 51 549
e 51 558
e 51 606
e 51 607
e 51 616
e 51 662
e 51 668
e 51 679
e 51 755
e 51 764
e 51 774
e 51 775
e 51 780
e 51 787
e 51 790
e 51 844
e 51 845
e 51 851
e 51 859
e 51 940
e 51 996
e 52 322
e 52 323
e 52 358
e 52 388
e 52 394
e 52 406
e 52 448
e 52 449
e 52 489
e 52 557
e 52 571
e 52 589
e 52 654
e 52 675
e 52 696
e 52 698
e 52 735
e 52 736
e 52 760
e 52 773
e 52 873
e 52 911
e 52 932
e 52 970
e 52 990
e 53 267
e 53 281
e 53 324
e 53 330
e 53 340
e 53 357
e 53 396
e 53 449
e 53 463
e 53 523
e 53 531
e 53 562
e 53 582
e 53 597
e 53 650
e 53 654
e 53 725
e 53 736
e 53 763
e 53 880
e 53 917
e 53 921
e 53 955
e 53 968
e 53 979
e 54 258
e 54 261
e 54 311
e 54 328
e 54 354
e 54 359
e 54 364
e 54 408
e 54 451
e 54 488
e 54 494
e 54 499
e 54 594
e 54 600
e 54 771
e 54 778
e 54 782
e 54 848
e 54 855
e 54 879
e 54 885
e 55 267
e 55 293
e 55 294
e 55 332
e 55 345
e 55 400
e 55 406
e 55 415
e 55 441
e 55 452
e 55 465
e 55 517
e 55 538
e 55 587
e 55 605
e 55 651
e 55 653
e 55 689
e 55 800
e 55 802
e 55 839
e 55 871
e 55 893
e 55 998
e 56 251
e 56 309
e 56 363
e 56 386
e 56 406
e 56 414
e 56 419
e 56 436
e 56 462
e 56 466
e 56 473
e 56 480
e 56 493
e 56 556
e 56 641
e 56 653
e 56 704
e 56 720
e 56 772
e 56 804
e 56 842
e 56 881
e 56 911
e 56 933
e 56 946
e 56 947
e 56 955
e 56 980
e 57 264
e 57 265
e 57 272
e 57 374
e 57 377
e 57 411
e 57 420
e 57 533
e 57 623
e 57 723
e 57 732
e 57 734
e 57 745
e 57 769
e 57 778
e 57 797
e 57 992
e 58 256
e 58 297
e 58 299
e 58 333
e 58 337
e 58 367
e 58 375
e 58 380
e 58 469
e 58 538
e 58 547
e 58 553
e 58 579
e 58 580
e 58 662
e 58 674
e 58 682
e 58 712
e 58 786
e 58 832
e 58 895
e 58 981
e 58 982
e 59 329
e 59 364
e 59 377
e 59 530
e 59 552
e 59 588
e 59 595
e 59 602
e 59 661
e 59 664
e 59 665
e 59 680
e 59 830
e 59 859
e 59 880
e 59 942
e 59 949
e 59 957
e 60 290
e 60 374
e 60 468
e 60 488
e 60 528
e 60 551
e 60 632
e 60 635
e 60 657
e 60 707
e 60 787
e 60 797
e 60 853
e 60 879
e 60 908
e 60 923
e 61 342
e 61 357
e 61 376
e 61 475
e 61 497
e 61 511
e 61 558
e 61 580
e 61 621
e 61 625
e 61 648
e 61 669
e 61 684
e 61 685
e 61 695
e 61 742
e 61 747
e 61 752
e 61 754
e 61 778
e 61 848
e 61 861
e 61 867
e 61 899
e 61 933
e 61 976
e 61 979
e 61 995
e 62 258
e 62 292
e 62 323
e 62 340
e 62 349
e 62 380
e 62 416
e 62 417
e 62 505
e 62 530
e 62 532
e 62 571
e 62 589
e 62 612
e 62 620
e 62 675
e 62 686
e 62 718
e 62 739
e 62 793
e 62 814
e 62 817
e 62 889
e 62 906
e 62 910
e 62 924
e 62 952
e 62 982
e 62 989
e 63 264
e 63 366
e 63 367
e 63 416
e 63 423
e 63 424
e 63 438
e 63 446
e 63 467
e 63 487
e 63 573
e 63 596
e 63 617
e 63 636
e 63 639
e 63 656
e 63 707
e 63 727
e 63 764
e 63 797
e 63 831
e 63 842
e 63 881
e 63 897
e 63 927
e 63 959
e 63 976
e 63 985
e 64 268
e 64 276
e 64 378
e 64 393
e 64 464
e 64 474
e 64 546
e 64 567
e 64 588
e 64 676
e 64 703
e 64 746
e 64 756
e 64 762
e 64 861
e 64 874
e 64 897
e 64 910
e 65 294
e 65 305
e 65 354
e 65 365
e 65 369
e 65 375
e 65 376
e 65 456
e 65 458
e 65 473
e 65 485
e 65 550
e 65 672
e 65 705
e 65 753
e 65 784
e 65 825
e 65 853
e 65 892
e 65 919
e 65 962
e 65 982
e 66 317
e 66 330
e 66 377
e 66 384
e 66 393
e 66 396
e 66 452
e 66 476
e 66 504
e 66 515
e 66 607
e 66 695
e 66 717
e 66 754
e 66 771
e 66 786
e 66 821
e 66 853
e 66 860
e 67 294
e 67 306
e 67 349
e 67 352
e 67 381
e 67 390
e 67 430
e 67 460
e 67 468
e 67 520
e 67 536
e 67 646
e 67 652
e 67 694
e 67 714
e 67 748
e 67 775
e 67 785
e 67 789
e 67 790
e 67 830
e 67 865
e 67 926
e 67 944
e 68 265
e 68 301
e 68 350
e 68 374
e 68 429
e 68 431
e 68 435
e 68 620
e 68 651
e 68 678
e 68 761
e 68 765
e 68 808
e 68 854
e 68 860
e 68 869
e 68 924
e 68 926
e 68 966
e 69 292
e 69 349
e 69 396
e 69 406
e 69 412
e 69 440
e 69 615
e 69 629
e 69 679
e 69 685
e 69 708
e 69 737
e 69 777
e 69 793
e 69 818
e 69 929
e 69 956
e 69 989
e 69 993
e 70 335
e 70 345
e 70 427
e 70 432
e 70 439
e 70 500
e 70 599
e 70 616
e 70 622
e 70 624
e 70 737
e 70 743
e 70 756
e 70 857
e 70 866
e 70 884
e 70 932
e 70 936
e 70 946
e 70 949
e 70 957
e 70 959
e 71 264
e 71 276
e 71 281
e 71 348
e 71 357
e 71 402
e 71 482
e 71 513
e 71 515
e 71 585
e 71 588
e 71 591
e 71 615
e 71 632
e 71 660
e 71 682
e 71 686
e 71 710
e 71 810
e 71 817
e 71 847
e 71 932
e 71 943
e 71 954
e 71 970
e 71 986
e 72 271
e 72 275
e 72 325
e 72 345
e 72 372
e 72 392
e 72 417
e 72 508
e 72 581
e 72 590
e 72 663
e 72 677
e 72 775
e 72 800
e 72 803
e 72 840
e 72 905
e 72 955
e 72 986
e 72 1000
e 73 310
e 73 332
e 73 366
e 73 397
e 73 434
e 73 625
e 73 645
e 73 819
e 73 848
e 73 884
e 73 929
e 74 265
e 74 298
e 74 324
e 74 335
e 74 371
e 74 425
e 74 483
e 74 588
e 74 641
e 74 645
e 74 655
e 74 716
e 74 723
e 74 745
e 74 783
e 74 798
e 74 853
e 74 886
e 74 942
e 74 950
e 74 974
e 74 981
e 75 307
e 75 326
e 75 558
e 75 567
e 75 576
e 75 617
e 75 634
e 75 692
e 75 722
e 75 725
e 75 746
e 75 775
e 75 824
e 75 837
e 75 844
e 75 951
e 75 984
e 76 265
e 76 308
e 76 345
e 76 350
e 76 397
e 76 407
e 76 498
e 76 529
e 76 566
e 76 575
e 76 616
e 76 624
e 76 640
e 76 716
e 76 722
e 76 784
e 76 845
e 76 852
e 76 878
e 76 881
e 76 911
e 76 961
e 77 257
e 77 295
e 77 309
e 77 336
e 77 358
e 77 391
e 77 402
e 77 452
e 77 461
e 77 471
e 77 505
e 77 537
e 77 648
e 77 698
e 77 709
e 77 730
e 77 739
e 77 743
e 77 753
e 77 755
e 77 796
e 77 810
e 77 844
e 77 919
e 77 951
e 77 985
e 77 996
e 78 301
e 78 329
e 78 334
e 78 346
e 78 363
e 78 411
e 78 421
e 78 422
e 78 429
e 78 439
e 78 487
e 78 548
e 78 578
e 78 590
e 78 612
e 78 618
e 78 630
e 78 761
e 78 778
e 78 780
e 78 830
e 78 873
e 78 913
e 78 965
e 78 999
e 79 284
e 79 314
e 79 329
e 79 381
e 79 458
e 79 493
e 79 539
e 79 552
e 79 580
e 79 591
e 79 611
e 79 633
e 79 642
e 79 685
e 79 753
e 79 769
e 79 773
e 79 792
e 79 827
e 79 879
e 79 902
e 79 911
e 79 946
e 79 950
e 80 256
e 80 286
e 80 289
e 80 328
e 80 386
e 80 402
e 80 424
e 80 437
e 80 489
e 80 516
e 80 559
e 80 574
e 80 583
e 80 602
e 80 905
e 80 918
e 80 927
e 80 948
e 80 1000
e 81 287
e 81 384
e 81 389
e 81 399
e 81 421
e 81 423
e 81 446
e 81 459
e 81 501
e 81 648
e 81 702
e 81 708
e 81 765
e 81 772
e 81 780
e 81 800
e 81 862
e 81 872
e 81 889
e 81 940
e 82 361
e 82 364
e 82 533
e 82 613
e 82 622
e 82 627
e 82 642
e 82 647
e 82 660
e 82 670
e 82 681
e 82 760
e 82 801
e 82 804
e 82 805
e 82 817
e 82 828
e 82 880
e 82 903
e 82 904
e 82 906
e 82 935
e 82 990
e 82 999
e 83 256
e 83 362
e 83 378
e 83 457
e 83 496
e 83 517
e 83 545
e 83 584
e 83 600
e 83 656
e 83 698
e 83 770
e 83 817
e 83 850
e 83 881
e 83 885
e 83 977
e 83 983
e 83 990
e 83 997
e 84 264
e 84 395
e 84 398
e 84 416
e 84 466
e 84 519
e 84 672
e 84 721
e 84 805
e 84 861
e 84 891
e 84 905
e 84 1000
e 85 281
e 85 282
e 85 356
e 85 369
e 85 398
e 85 413
e 85 425
e 85 451
e 85 527
e 85 550
e 85 609
e 85 631
e 85 686
e 85 699
e 85 717
e 85 760
e 85 813
e 85 834
e 85 863
e 85 895
e 85 914
e 85 959
e 86 286
e 86 300
e 86 312
e 86 358
e 86 382
e 86 434
e 86 468
e 86 570
e 86 601
e 86 630
e 86 651
e 86 714
e 86 747
e 86 755
e 86 766
e 86 791
e 86 819
e 86 827
e 86 869
e 86 884
e 86 949
e 86 990
e 86 997
e 87 317
e 87 351
e 87 385
e 87 402
e 87 429
e 87 434
e 87 463
e 87 467
e 87 505
e 87 523
e 87 551
e 87 558
e 87 562
e 87 579
e 87 657
e 87 674
e 87 677
e 87 741
e 87 762
e 87 777
e 87 779
e 87 787
e 87 850
e 87 909
e 87 917
e 87 921
e 87 968
e 87 985
e 87 989
e 88 252
e 88 276
e 88 338
e 88 419
e 88 438
e 88 449
e 88 512
e 88 514
e 88 530
e 88 562
e 88 584
e 88 606
e 88 666
e 88 712
e 88 826
e 88 876
e 88 878
e 88 882
e 88 915
e 88 917
e 88 964
e 88 976
e 88 1000
e 89 256
e 89 261
e 89 304
e 89 576
e 89 583
e 89 787
e 89 850
e 89 869
e 89 899
e 90 280
e 90 310
e 90 311
e 90 322
e 90 357
e 90 401
e 90 445
e 90 455
e 90 570
e 90 598
e 90 601
e 90 608
e 90 617
e 90 621
e 90 636
e 90 646
e 90 652
e 90 670
e 90 675
e 90 691
e 90 717
e 90 745
e 90 793
e 90 843
e 90 947
e 91 314
e 91 322
e 91 342
e 91 407
e 91 411
e 91 420
e 91 439
e 91 441
e 91 508
e 91 668
e 91 675
e 91 676
e 91 685
e 91 716
e 91 743
e 91 879
e 91 902
e 91 945
e 91 974
e 91 981
e 91 992
e 92 251
e 92 385
e 92 393
e 92 526
e 92 532
e 92 552
e 92 567
e 92 595
e 92 618
e 92 649
e 92 664
e 92 753
e 92 793
e 92 902
e 92 903
e 92 913
e 92 990
e 93 269
e 93 352
e 93 377
e 93 408
e 93 431
e 93 450
e 93 470
e 93 501
e 93 550
e 93 574
e 93 652
e 93 710
e 93 734
e 93 775
e 93 835
e 93 871
e 93 873
e 93 883
e 93 936
e 93 955
e 93 977
e 94 294
e 94 319
e 94 324
e 94 356
e 94 366
e 94 388
e 94 400
e 94 467
e 94 480
e 94 491
e 94 503
e 94 512
e 94 533
e 94 695
e 94 720
e 94 737
e 94 747
e 94 762
e 94 778
e 94 856
e 94 877
e 94 898
e 94 901
e 94 958
e 94 986
e 95 260
e 95 295
e 95 317
e 95 337
e 95 357
e 95 359
e 95 377
e 95 388
e 95 402
e 95 405
e 95 419
e 95 462
e 95 473
e 95 492
e 95 513
e 95 536
e 95 548
e 95 571
e 95 577
e 95 600
e 95 665
e 95 726
e 95 741
e 95 797
e 95 811
e 95 833
e 95 855
e 95 863
e 95 879
e 95 899
e 95 911
e 95 924
e 95 955
e 95 999
e 95 1000
e 96 273
e 96 282
e 96 348
e 96 364
e 96 428
e 96 557
e 96 582
e 96 658
e 96 704
e 96 832
e 96 833
e 96 837
e 96 845
e 96 866
e 96 919
e 96 928
e 96 950
e 96 954
e 97 363
e 97 371
e 97 411
e 97 420
e 97 439
e 97 441
e 97 486
e 97 490
e 97 557
e 97 569
e 97 665
e 97 674
e 97 682
e 97 699
e 97 797
e 97 800
e 97 811
e 97 814
e 97 843
e 97 853
e 97 911
e 97 930
e 97 932
e 97 947
e 97 965
e 97 968
e 97 972
e 98 310
e 98 314
e 98 330
e 98 418
e 98 430
e 98 479
e 98 508
e 98 515
e 98 602
e 98 754
e 98 789
e 98 801
e 98 821
e 98 868
e 98 923
e 98 953
e 98 954
e 99 321
e 99 496
e 99 506
e 99 530
e 99 533
e 99 680
e 99 701
e 99 719
e 99 728
e 99 746
e 99 848
e 99 870
e 99 903
e 99 935
e 99 987
e 100 263
e 100 266
e 100 267
e 100 325
e 100 373
e 100 379
e 100 400
e 100 447
e 100 521
e 100 558
e 100 562
e 100 712
e 100 736
e 100 825
e 100 860
e 100 872
e 100 920
e 100 941
e 101 278
e 101 284
e 101 287
e 101 290
e 101 291
e 101 310
e 101 318
e 101 363
e 101 367
e 101 369
e 101 398
e 101 421
e 101 430
e 101 464
e 101 478
e 101 492
e 101 493
e 101 524
e 101 527
e 101 551
e 101 580
e 101 583
e 101 596
e 101 615
e 101 651
e 101 668
e 101 694
e 101 709
e 101 746
e 101 798
e 101 840
e 101 856
e 101 870
e 101 921
e 101 923
e 102 278
e 102 331
e 102 338
e 102 352
e 102 367
e 102 408
e 102 460
e 102 488
e 102 512
e 102 540
e 102 563
e 102 572
e 102 626
e 102 645
e 102 650
e 102 677
e 102 707
e 102 758
e 102 771
e 102 844
e 102 854
e 102 862
e 102 867
e 102 877
e 102 888
e 102 933
e 103 376
e 103 379
e 103 388
e 103 394
e 103 442
e 103 485
e 103 520
e 103 572
e 103 592
e 103 599
e 103 690
e 103 697
e 103 708
e 103 727
e 103 731
e 103 753
e 103 783
e 103 827
e 103 829
e 103 879
e 103 931
e 103 956
e 103 964
e 103 970
e 104 322
e 104 337
e 104 382
e 104 466
e 104 523
e 104 526
e 104 551
e 104 575
e 104 581
e 104 647
e 104 651
e 104 675
e 104 679
e 104 682
e 104 763
e 104 790
e 104 851
e 104 873
e 104 886
e 104 923
e 104 991
e 104 997
e 104 998
e 105 255
e 105 345
e 105 391
e 105 459
e 105 535
e 105 547
e 105 564
e 105 580
e 105 634
e 105 689
e 105 693
e 105 709
e 105 768
e 105 813
e 105 869
e 105 912
e 105 932
e 105 945
e 106 273
e 106 292
e 106 295
e 106 397
e 106 431
e 106 509
e 106 622
e 106 662
e 106 705
e 106 721
e 106 768
e 106 784
e 106 806
e 106 831
e 106 870
e 106 884
e 106 936
e 107 265
e 107 290
e 107 342
e 107 351
e 107 355
e 107 364
e 107 378
e 107 421
e 107 476
e 107 604
e 107 610
e 107 613
e 107 630
e 107 660
e 107 692
e 107 697
e 107 713
e 107 725
e 107 793
e 107 832
e 107 870
e 107 891
e 107 894
e 107 924
e 107 925
e 107 928
e 107 974
e 107 996
e 108 256
e 108 293
e 108 313
e 108 318
e 108 382
e 108 421
e 108 423
e 108 478
e 108 557
e 108 585
e 108 705
e 108 771
e 108 790
e 108 895
e 108 919
e 108 949
e 108 978
e 109 264
e 109 268
e 109 306
e 109 349
e 109 370
e 109 412
e 109 423
e 109 434
e 109 452
e 109 535
e 109 556
e 109 582
e 109 593
e 109 622
e 109 628
e 109 708
e 109 727
e 109 782
e 109 828
e 109 840
e 109 848
e 109 884
e 109 933
e 109 935
e 109 948
e 109 984
e 109 999
e 110 277
e 110 289
e 110 297
e 110 307
e 110 336
e 110 411
e 110 429
e 110 464
e 110 497
e 110 521
e 110 555
e 110 568
e 110 659
e 110 674
e 110 751
e 110 863
e 110 898
e 110 988
e 111 263
e 111 299
e 111 353
e 111 393
e 111 501
e 111 516
e 111 606
e 111 659
e 111 661
e 111 669
e 111 672
e 111 695
e 111 739
e 111 775
e 111 797
e 111 811
e 111 823
e 111 893
e 111 908
e 111 934
e 112 276
e 112 352
e 112 378
e 112 400
e 112 443
e 112 446
e 112 488
e 112 581
e 112 600
e 112 606
e 112 632
e 112 821
e 112 845
e 112 881
e 112 932
e 113 253
e 113 319
e 113 403
e 113 424
e 113 442
e 113 593
e 113 594
e 113 600
e 113 646
e 113 657
e 113 669
e 113 723
e 113 727
e 113 745
e 113 784
e 113 811
e 113 976
e 113 1000
e 114 251
e 114 261
e 114 277
e 114 348
e 114 375
e 114 383
e 114 437
e 114 464
e 114 521
e 114 585
e 114 611
e 114 667
e 114 673
e 114 811
e 114 876
e 114 894
e 114 959
e 115 305
e 115 328
e 115 342
e 115 352
e 115 368
e 115 377
e 115 381
e 115 394
e 115 452
e 115 459
e 115 492
e 115 495
e 115 533
e 115 556
e 115 602
e 115 609
e 115 610
e 115 715
e 115 719
e 115 720
e 115 722
e 115 734
e 115 736
e 115 750
e 115 760
e 115 770
e 115 777
e 115 780
e 115 841
e 115 869
e 115 881
e 115 929
e 115 937
e 116 281
e 116 294
e 116 317
e 116 327
e 116 344
e 116 345
e 116 387
e 116 599
e 116 602
e 116 614
e 116 640
e 116 688
e 116 698
e 116 713
e 116 795
e 116 803
e 116 822
e 116 859
e 116 883
e 116 893
e 116 951
e 116 953
e 117 259
e 117 265
e 117 279
e 117 291
e 117 352
e 117 373
e 117 376
e 117 408
e 117 412
e 117 444
e 117 456
e 117 465
e 117 470
e 117 499
e 117 509
e 117 517
e 117 534
e 117 577
e 117 602
e 117 618
e 117 724
e 117 763
e 117 807
e 117 847
e 117 858
e 117 866
e 117 872
e 117 937
e 117 958
e 117 965
e 117 999
e 118 254
e 118 296
e 118 313
e 118 349
e 118 407
e 118 423
e 118 434
e 118 443
e 118 496
e 118 504
e 118 544
e 118 552
e 118 566
e 118 638
e 118 681
e 118 776
e 118 785
e 118 841
e 118 857
e 118 863
e 118 865
e 118 892
e 118 902
e 118 934
e 118 973
e 119 272
e 119 306
e 119 348
e 119 385
e 119 449
e 119 466
e 119 504
e 119 561
e 119 567
e 119 575
e 119 612
e 119 617
e 119 627
e 119 630
e 119 647
e 119 652
e 119 704
e 119 713
e 119 760
e 119 792
e 119 902
e 119 969
e 119 978
e 120 257
e 120 289
e 120 354
e 120 410
e 120 430
e 120 431
e 120 447
e 120 451
e 120 464
e 120 485
e 120 494
e 120 604
e 120 645
e 120 673
e 120 701
e 120 711
e 120 741
e 120 752
e 120 766
e 120 784
e 120 905
e 121 266
e 121 295
e 121 308
e 121 336
e 121 365
e 121 425
e 121 513
e 121 515
e 121 537
e 121 543
e 121 560
e 121 562
e 121 600
e 121 757
e 121 843
e 121 879
e 121 885
e 121 932
e 121 938
e 121 941
e 121 987
e 122 253
e 122 346
e 122 436
e 122 451
e 122 474
e 122 493
e 122 512
e 122 522
e 122 539
e 122 647
e 122 663
e 122 669
e 122 689
e 122 739
e 122 768
e 122 851
e 122 856
e 122 942
e 122 1000
e 123 272
e 123 321
e 123 337
e 123 356
e 123 368
e 123 390
e 123 392
e 123 499
e 123 543
e 123 549
e 123 587
e 123 606
e 123 619
e 123 649
e 123 681
e 123 688
e 123 696
e 123 741
e 123 744
e 123 756
e 123 759
e 123 763
e 123 802
e 123 826
e 123 847
e 123 886
e 123 894
e 123 921
e 123 924
e 123 953
e 123 998
e 124 350
e 124 379
e 124 383
e 124 472
e 124 483
e 124 490
e 124 509
e 124 522
e 124 551
e 124 556
e 124 569
e 124 601
e 124 625
e 124 626
e 124 646
e 124 656
e 124 699
e 124 716
e 124 736
e 124 775
e 124 824
e 124 827
e 124 846
e 124 896
e 124 931
e 124 936
e 125 318
e 125 383
e 125 385
e 125 399
e 125 403
e 125 449
e 125 488
e 125 581
e 125 626
e 125 649
e 125 666
e 125 714
e 125 735
e 125 764
e 125 829
e 125 830
e 125 936
e 125 972
e 126 280
e 126 318
e 126 357
e 126 378
e 126 421
e 126 459
e 126 490
e 126 498
e 126 501
e 126 556
e 126 593
e 126 611
e 126 621
e 126 638
e 126 653
e 126 817
e 126 837
e 126 851
e 126 885
e 126 901
e 126 902
e 126 970
e 127 339
e 127 421
e 127 470
e 127 525
e 127 547
e 127 561
e 127 610
e 127 644
e 127 653
e 127 691
e 127 697
e 127 703
e 127 750
e 127 835
e 127 860
e 127 908
e 128 263
e 128 335
e 128 399
e 128 535
e 128 543
e 128 614
e 128 701
e 128 711
e 128 733
e 128 811
e 128 869
e 128 959
e 128 993
e 129 317
e 129 335
e 129 353
e 129 357
e 129 397
e 129 459
e 129 507
e 129 510
e 129 610
e 129 695
e 129 759
e 129 760
e 129 779
e 129 816
e 129 822
e 129 836
e 129 853
e 129 856
e 129 896
e 129 907
e 129 986
e 130 286
e 130 318
e 130 330
e 130 361
e 130 376
e 130 394
e 130 427
e 130 509
e 130 513
e 130 538
e 130 558
e 130 560
e 130 564
e 130 688
e 130 701
e 130 717
e 130 750
e 130 791
e 130 810
e 130 817
e 130 823
e 130 836
e 130 860
e 130 918
e 130 994
e 131 251
e 131 258
e 131 295
e 131 370
e 131 409
e 131 483
e 131 494
e 131 526
e 131 637
e 131 655
e 131 699
e 131 755
e 131 782
e 131 794
e 131 801
e 131 890
e 131 904
e 131 905
e 131 923
e 131 933
e 131 970
e 131 995
e 132 318
e 132 335
e 132 345
e 132 366
e 132 394
e 132 449
e 132 457
e 132 470
e 132 475
e 132 487
e 132 503
e 132 533
e 132 578
e 132 588
e 132 598
e 132 643
e 132 650
e 132 652
e 132 672
e 132 690
e 132 709
e 132 712
e 132 742
e 132 757
e 132 822
e 132 825
e 132 855
e 132 869
e 132 944
e 133 258
e 133 289
e 133 364
e 133 465
e 133 511
e 133 523
e 133 527
e 133 541
e 133 546
e 133 597
e 133 615
e 133 636
e 133 654
e 133 683
e 133 696
e 133 704
e 133 741
e 133 766
e 133 807
e 133 846
e 133 855
e 133 894
e 133 897
e 133 912
e 133 998
e 134 280
e 134 330
e 134 347
e 134 407
e 134 435
e 134 460
e 134 485
e 134 542
e 134 633
e 134 634
e 134 709
e 134 764
e 134 804
e 134 832
e 134 833
e 134 853
e 134 868
e 134 869
e 134 992
e 135 265
e 135 276
e 135 300
e 135 317
e 135 327
e 135 358
e 135 361
e 135 369
e 135 466
e 135 509
e 135 574
e 135 576
e 135 583
e 135 586
e 135 609
e 135 616
e 135 697
e 135 708
e 135 732
e 135 734
e 135 744
e 135 757
e 135 767
e 135 801
e 135 803
e 135 813
e 135 834
e 135 873
e 135 904
e 135 907
e 135 944
e 135 977
e 136 295
e 136 308
e 136 350
e 136 351
e 136 477
e 136 536
e 136 643
e 136 653
e 136 683
e 136 691
e 136 694
e 136 762
e 136 821
e 136 893
e 136 916
e 136 964
e 137 260
e 137 277
e 137 305
e 137 339
e 137 351
e 137 388
e 137 415
e 137 434
e 137 487
e 137 493
e 137 502
e 137 549
e 137 566
e 137 614
e 137 633
e 137 664
e 137 670
e 137 703
e 137 718
e 137 735
e 137 744
e 137 748
e 137 789
e 137 939
e 137 999
e 138 268
e 138 316
e 138 404
e 138 426
e 138 434
e 138 481
e 138 486
e 138 510
e 138 524
e 138 540
e 138 726
e 138 733
e 138 761
e 138 766
e 138 788
e 138 794
e 138 796
e 138 937
e 138 972
e 139 295
e 139 346
e 139 372
e 139 444
e 139 523
e 139 538
e 139 543
e 139 578
e 139 702
e 139 754
e 139 824
e 139 826
e 139 828
e 139 884
e 139 895
e 139 900
e 139 929
e 139 962
e 139 982
e 140 292
e 140 341
e 140 355
e 140 387
e 140 394
e 140 419
e 140 472
e 140 557
e 140 560
e 140 568
e 140 576
e 140 646
e 140 647
e 140 662
e 140 686
e 140 694
e 140 782
e 140 813
e 140 814
e 140 835
e 140 842
e 140 888
e 140 972
e 140 988
e 141 287
e 141 434
e 141 452
e 141 461
e 141 513
e 141 561
e 141 616
e 141 666
e 141 695
e 141 701
e 141 725
e 141 780
e 141 805
e 141 854
e 141 867
e 141 871
e 141 907
e 141 925
e 141 961
e 141 997
e 142 300
e 142 337
e 142 338
e 142 358
e 142 389
e 142 451
e 142 490
e 142 509
e 142 533
e 142 591
e 142 613
e 142 616
e 142 685
e 142 736
e 142 754
e 142 774
e 142 794
e 142 821
e 142 879
e 142 890
e 142 905
e 142 982
e 143 258
e 143 323
e 143 347
e 143 514
e 143 548
e 143 551
e 143 571
e 143 581
e 143 645
e 143 694
e 143 726
e 143 838
e 143 854
e 143 977
e 143 982
e 143 992
e 144 300
e 144 318
e 144 355
e 144 374
e 144 392
e 144 415
e 144 439
e 144 443
e 144 493
e 144 535
e 144 603
e 144 638
e 144 754
e 144 770
e 144 796
e 144 816
e 144 893
e 144 916
e 144 931
e 145 349
e 145 365
e 145 408
e 145 416
e 145 457
e 145 459
e 145 495
e 145 520
e 145 535
e 145 598
e 145 624
e 145 644
e 145 720
e 145 763
e 145 836
e 145 857
e 145 878
e 145 880
e 145 923
e 145 938
e 146 255
e 146 265
e 146 274
e 146 279
e 146 359
e 146 451
e 146 513
e 146 566
e 146 612
e 146 617
e 146 631
e 146 633
e 146 640
e 146 641
e 146 716
e 146 721
e 146 727
e 146 751
e 146 849
e 146 856
e 147 258
e 147 261
e 147 262
e 147 266
e 147 324
e 147 325
e 147 334
e 147 357
e 147 371
e 147 385
e 147 484
e 147 494
e 147 559
e 147 577
e 147 623
e 147 666
e 147 763
e 147 769
e 147 793
e 147 886
e 147 919
e 147 936
e 147 943
e 147 963
e 147 970
e 147 991
e 148 343
e 148 347
e 148 351
e 148 374
e 148 391
e 148 438
e 148 495
e 148 508
e 148 559
e 148 611
e 148 647
e 148 654
e 148 691
e 148 709
e 148 713
e 148 718
e 148 719
e 148 813
e 148 882
e 148 977
e 148 997
e 149 251
e 149 259
e 149 289
e 149 319
e 149 379
e 149 463
e 149 478
e 149 491
e 149 520
e 149 522
e 149 530
e 149 625
e 149 641
e 149 702
e 149 790
e 149 802
e 149 867
e 149 872
e 149 920
e 149 921
e 149 963
e 150 276
e 150 330
e 150 362
e 150 379
e 150 437
e 150 452
e 150 475
e 150 516
e 150 520
e 150 534
e 150 543
e 150 566
e 150 625
e 150 695
e 150 747
e 150 752
e 150 755
e 150 762
e 150 841
e 150 890
e 150 898
e 150 964
e 150 967
e 150 974
e 150 981
e 150 983
e 151 255
e 151 272
e 151 274
e 151 340
e 151 376
e 151 413
e 151 416
e 151 421
e 151 431
e 151 459
e 151 530
e 151 542
e 151 573
e 151 574
e 151 705
e 151 735
e 151 799
e 151 822
e 151 834
e 151 846
e 151 864
e 151 889
e 151 920
e 151 938
e 151 944
e 151 972
e 151 973
e 151 989
e 151 991
e 152 252
e 152 277
e 152 279
e 152 286
e 152 393
e 152 416
e 152 470
e 152 471
e 152 505
e 152 531
e 152 536
e 152 576
e 152 662
e 152 705
e 152 736
e 152 764
e 152 922
e 152 937
e 152 960
e 153 260
e 153 339
e 153 482
e 153 493
e 153 538
e 153 633
e 153 690
e 153 740
e 153 741
e 153 814
e 153 837
e 153 845
e 153 911
e 153 915
e 153 968
e 153 980
e 153 982
e 154 307
e 154 393
e 154 401
e 154 504
e 154 522
e 154 561
e 154 584
e 154 632
e 154 633
e 154 647
e 154 660
e 154 667
e 154 684
e 154 732
e 154 758
e 154 829
e 154 833
e 154 835
e 154 937
e 154 958
e 154 966
e 155 297
e 155 415
e 155 418
e 155 474
e 155 606
e 155 622
e 155 674
e 155 677
e 155 682
e 155 756
e 155 777
e 155 836
e 155 855
e 155 927
e 155 932
e 155 972
e 156 315
e 156 381
e 156 408
e 156 409
e 156 437
e 156 512
e 156 541
e 156 544
e 156 550
e 156 564
e 156 585
e 156 661
e 156 672
e 156 714
e 156 725
e 156 726
e 156 739
e 156 742
e 156 784
e 156 855
e 156 865
e 156 964
e 157 291
e 157 330
e 157 344
e 157 369
e 157 375
e 157 398
e 157 458
e 157 527
e 157 537
e 157 550
e 157 596
e 157 604
e 157 681
e 157 728
e 157 739
e 157 753
e 157 757
e 157 822
e 157 849
e 157 853
e 157 872
e 157 885
e 157 894
e 157 973
e 157 996
e 158 338
e 158 353
e 158 403
e 158 410
e 158 420
e 158 440
e 158 452
e 158 503
e 158 541
e 158 550
e 158 597
e 158 600
e 158 606
e 158 629
e 158 632
e 158 636
e 158 694
e 158 710
e 158 800
e 158 802
e 158 880
e 158 890
e 158 986
e 158 989
e 159 266
e 159 271
e 159 278
e 159 371
e 159 374
e 159 449
e 159 468
e 159 471
e 159 606
e 159 633
e 159 678
e 159 744
e 159 775
e 159 782
e 159 810
e 159 833
e 159 902
e 159 923
e 159 983
e 160 260
e 160 301
e 160 405
e 160 437
e 160 451
e 160 475
e 160 509
e 160 559
e 160 567
e 160 627
e 160 649
e 160 658
e 160 785
e 160 789
e 160 793
e 160 806
e 160 833
e 160 840
e 160 979
e 160 982
e 160 999
e 161 256
e 161 337
e 161 350
e 161 450
e 161 455
e 161 496
e 161 602
e 161 609
e 161 656
e 161 657
e 161 668
e 161 757
e 161 762
e 161 768
e 161 786
e 161 804
e 161 839
e 161 866
e 161 881
e 161 882
e 161 903
e 161 920
e 161 934
e 161 937
e 161 938
e 161 940
e 161 944
e 162 253
e 162 256
e 162 274
e 162 298
e 162 328
e 162 356
e 162 421
e 162 454
e 162 482
e 162 500
e 162 535
e 162 564
e 162 594
e 162 656
e 162 663
e 162 812
e 162 816
e 162 820
e 162 876
e 162 886
e 162 964
e 162 987
e 163 256
e 163 345
e 163 360
e 163 390
e 163 424
e 163 453
e 163 487
e 163 507
e 163 534
e 163 564
e 163 642
e 163 678
e 163 690
e 163 733
e 163 750
e 163 858
e 163 870
e 163 906
e 163 965
e 164 256
e 164 266
e 164 286
e 164 307
e 164 317
e 164 325
e 164 346
e 164 373
e 164 377
e 164 378
e 164 416
e 164 475
e 164 524
e 164 526
e 164 543
e 164 614
e 164 661
e 164 715
e 164 747
e 164 763
e 164 830
e 164 894
e 164 955
e 164 966
e 164 976
e 165 255
e 165 280
e 165 299
e 165 305
e 165 350
e 165 359
e 165 375
e 165 457
e 165 486
e 165 498
e 165 527
e 165 537
e 165 572
e 165 593
e 165 615
e 165 619
e 165 625
e 165 641
e 165 724
e 165 729
e 165 839
e 165 844
e 165 862
e 165 893
e 165 926
e 165 948
e 165 961
e 166 253
e 166 297
e 166 301
e 166 330
e 166 336
e 166 361
e 166 365
e 166 415
e 166 480
e 166 482
e 166 522
e 166 526
e 166 530
e 166 597
e 166 602
e 166 623
e 166 649
e 166 654
e 166 656
e 166 672
e 166 718
e 166 726
e 166 774
e 166 783
e 166 793
e 166 797
e 166 801
e 166 871
e 166 877
e 166 917
e 167 317
e 167 324
e 167 332
e 167 336
e 167 337
e 167 374
e 167 388
e 167 423
e 167 430
e 167 485
e 167 486
e 167 604
e 167 627
e 167 669
e 167 720
e 167 737
e 167 738
e 167 760
e 167 764
e 167 781
e 167 818
e 167 882
e 167 897
e 167 915
e 167 946
e 167 947
e 167 999
e 168 287
e 168 302
e 168 338
e 168 356
e 168 400
e 168 406
e 168 428
e 168 429
e 168 439
e 168 446
e 168 449
e 168 503
e 168 517
e 168 521
e 168 581
e 168 593
e 168 680
e 168 685
e 168 696
e 168 746
e 168 820
e 168 822
e 168 849
e 168 852
e 168 886
e 168 898
e 168 971
e 169 316
e 169 339
e 169 343
e 169 363
e 169 378
e 169 390
e 169 401
e 169 404
e 169 434
e 169 440
e 169 449
e 169 455
e 169 476
e 169 504
e 169 560
e 169 568
e 169 624
e 169 671
e 169 741
e 169 789
e 169 816
e 169 849
e 169 870
e 169 925
e 169 977
e 170 268
e 170 284
e 170 316
e 170 457
e 170 500
e 170 513
e 170 546
e 170 558
e 170 570
e 170 690
e 170 773
e 170 797
e 170 810
e 170 898
e 170 902
e 170 970
e 170 985
e 170 998
e 171 299
e 171 313
e 171 326
e 171 349
e 171 366
e 171 389
e 171 481
e 171 496
e 171 516
e 171 567
e 171 594
e 171 634
e 171 643
e 171 656
e 171 657
e 171 681
e 171 716
e 171 750
e 171 758
e 171 773
e 171 777
e 171 797
e 171 830
e 171 837
e 171 856
e 171 903
e 171 906
e 171 979
e 172 251
e 172 261
e 172 286
e 172 345
e 172 346
e 172 372
e 172 391
e 172 412
e 172 552
e 172 564
e 172 617
e 172 619
e 172 632
e 172 636
e 172 688
e 172 707
e 172 719
e 172 770
e 172 896
e 172 918
e 172 929
e 172 979
e 172 994
e 172 996
e 173 251
e 173 258
e 173 283
e 173 297
e 173 371
e 173 381
e 173 395
e 173 414
e 173 446
e 173 455
e 173 657
e 173 681
e 173 710
e 173 805
e 173 914
e 173 987
e 174 289
e 174 427
e 174 525
e 174 531
e 174 542
e 174 553
e 174 634
e 174 656
e 174 688
e 174 733
e 174 757
e 174 812
e 174 850
e 174 870
e 174 889
e 174 895
e 174 955
e 174 991
e 175 257
e 175 296
e 175 299
e 175 301
e 175 342
e 175 346
e 175 368
e 175 369
e 175 398
e 175 425
e 175 497
e 175 505
e 175 517
e 175 545
e 175 559
e 175 560
e 175 654
e 175 659
e 175 678
e 175 777
e 175 829
e 175 850
e 175 863
e 175 913
e 175 936
e 175 945
e 176 297
e 176 299
e 176 349
e 176 356
e 176 376
e 176 442
e 176 458
e 176 490
e 176 507
e 176 510
e 176 574
e 176 595
e 176 615
e 176 744
e 176 750
e 176 753
e 176 761
e 176 768
e 176 770
e 176 794
e 176 816
e 176 895
e 176 939
e 176 958
e 176 984
e 177 264
e 177 299
e 177 302
e 177 329
e 177 330
e 177 370
e 177 392
e 177 399
e 177 425
e 177 430
e 177 462
e 177 469
e 177 502
e 177 571
e 177 592
e 177 632
e 177 666
e 177 683
e 177 704
e 177 726
e 177 926
e 177 970
e 177 979
e 177 982
e 177 995
e 178 254
e 178 273
e 178 351
e 178 358
e 178 381
e 178 384
e 178 390
e 178 464
e 178 483
e 178 484
e 178 584
e 178 705
e 178 711
e 178 728
e 178 829
e 178 844
e 178 860
e 178 901
e 178 919
e 178 994
e 179 344
e 179 378
e 179 381
e 179 386
e 179 399
e 179 451
e 179 453
e 179 486
e 179 598
e 179 600
e 179 680
e 179 710
e 179 735
e 179 774
e 179 807
e 179 811
e 179 824
e 179 856
e 179 882
e 179 886
e 179 919
e 179 931
e 179 933
e 179 952
e 179 970
e 179 973
e 180 253
e 180 289
e 180 393
e 180 432
e 180 449
e 180 474
e 180 481
e 180 483
e 180 520
e 180 609
e 180 618
e 180 651
e 180 657
e 180 742
e 180 772
e 180 786
e 180 830
e 180 881
e 180 886
e 180 894
e 180 913
e 180 956
e 180 974
e 180 978
e 180 989
e 181 286
e 181 312
e 181 385
e 181 388
e 181 404
e 181 423
e 181 438
e 181 442
e 181 446
e 181 451
e 181 522
e 181 566
e 181 568
e 181 572
e 181 573
e 181 595
e 181 700
e 181 772
e 181 802
e 181 841
e 181 879
e 181 893
e 181 897
e 181 907
e 181 922
e 181 950
e 181 954
e 182 259
e 182 299
e 182 317
e 182 325
e 182 336
e 182 346
e 182 359
e 182 392
e 182 414
e 182 524
e 182 549
e 182 571
e 182 579
e 182 637
e 182 664
e 182 669
e 182 731
e 182 753
e 182 784
e 182 791
e 182 798
e 182 834
e 182 867
e 182 908
e 182 932
e 182 964
e 182 995
e 183 367
e 183 459
e 183 470
e 183 477
e 183 484
e 183 510
e 183 546
e 183 563
e 183 604
e 183 676
e 183 707
e 183 745
e 183 797
e 183 853
e 183 872
e 183 887
e 183 895
e 183 916
e 183 967
e 184 307
e 184 329
e 184 375
e 184 417
e 184 423
e 184 425
e 184 474
e 184 486
e 184 490
e 184 534
e 184 591
e 184 597
e 184 602
e 184 627
e 184 656
e 184 686
e 184 842
e 184 848
e 184 861
e 184 900
e 184 901
e 184 912
e 184 943
e 185 258
e 185 259
e 185 261
e 185 269
e 185 300
e 185 337
e 185 354
e 185 421
e 185 444
e 185 451
e 185 542
e 185 570
e 185 571
e 185 586
e 185 589
e 185 673
e 185 724
e 185 761
e 185 771
e 185 816
e 185 821
e 185 915
e 185 916
e 185 932
e 185 958
e 185 983
e 185 985
e 185 986
e 186 257
e 186 265
e 186 267
e 186 275
e 186 284
e 186 353
e 186 401
e 186 407
e 186 408
e 186 415
e 186 433
e 186 477
e 186 489
e 186 492
e 186 556
e 186 599
e 186 653
e 186 712
e 186 753
e 186 963
e 186 965
e 186 976
e 186 983
e 187 258
e 187 268
e 187 299
e 187 305
e 187 329
e 187 388
e 187 390
e 187 400
e 187 451
e 187 452
e 187 473
e 187 517
e 187 572
e 187 639
e 187 678
e 187 682
e 187 704
e 187 784
e 187 790
e 187 830
e 187 853
e 187 877
e 187 929
e 187 984
e 187 990
e 188 277
e 188 315
e 188 362
e 188 369
e 188 404
e 188 409
e 188 423
e 188 495
e 188 515
e 188 516
e 188 565
e 188 572
e 188 620
e 188 629
e 188 652
e 188 674
e 188 711
e 188 724
e 188 734
e 188 735
e 188 802
e 188 871
e 188 903
e 188 936
e 188 984
e 189 281
e 189 303
e 189 304
e 189 348
e 189 374
e 189 399
e 189 404
e 189 416
e 189 464
e 189 467
e 189 479
e 189 517
e 189 523
e 189 646
e 189 650
e 189 666
e 189 674
e 189 702
e 189 705
e 189 745
e 189 771
e 189 782
e 189 784
e 189 923
e 189 949
e 189 983
e 190 261
e 190 308
e 190 339
e 190 343
e 190 376
e 190 469
e 190 498
e 190 508
e 190 514
e 190 557
e 190 567
e 190 603
e 190 714
e 190 741
e 190 824
e 190 864
e 190 890
e 190 894
e 190 905
e 190 926
e 190 946
e 190 977
e 191 270
e 191 301
e 191 304
e 191 346
e 191 390
e 191 394
e 191 434
e 191 443
e 191 470
e 191 509
e 191 520
e 191 524
e 191 555
e 191 574
e 191 586
e 191 590
e 191 703
e 191 714
e 191 741
e 191 766
e 191 773
e 191 776
e 191 787
e 191 798
e 191 849
e 191 860
e 191 974
e 192 263
e 192 273
e 192 279
e 192 389
e 192 422
e 192 425
e 192 434
e 192 459
e 192 487
e 192 507
e 192 544
e 192 622
e 192 642
e 192 671
e 192 688
e 192 696
e 192 705
e 192 738
e 192 775
e 192 841
e 192 904
e 192 911
e 193 338
e 193 395
e 193 426
e 193 456
e 193 502
e 193 505
e 193 560
e 193 561
e 193 566
e 193 618
e 193 672
e 193 711
e 193 728
e 193 746
e 193 762
e 193 764
e 193 774
e 193 776
e 193 798
e 193 819
e 193 837
e 193 878
e 193 921
e 193 992
e 194 299
e 194 352
e 194 375
e 194 401
e 194 435
e 194 447
e 194 570
e 194 584
e 194 617
e 194 633
e 194 657
e 194 682
e 194 700
e 194 709
e 194 774
e 194 788
e 194 798
e 194 804
e 194 830
e 194 890
e 194 913
e 194 999
e 195 275
e 195 305
e 195 321
e 195 350
e 195 451
e 195 458
e 195 505
e 195 523
e 195 532
e 195 571
e 195 587
e 195 597
e 195 603
e 195 604
e 195 608
e 195 609
e 195 739
e 195 752
e 195 878
e 195 905
e 195 945
e 196 362
e 196 462
e 196 497
e 196 528
e 196 544
e 196 558
e 196 586
e 196 631
e 196 644
e 196 721
e 196 741
e 196 772
e 196 812
e 196 838
e 196 850
e 196 902
e 196 915
e 196 919
e 196 938
e 197 265
e 197 289
e 197 304
e 197 318
e 197 326
e 197 395
e 197 499
e 197 505
e 197 509
e 197 516
e 197 541
e 197 546
e 197 613
e 197 624
e 197 626
e 197 696
e 197 699
e 197 725
e 197 744
e 197 852
e 197 867
e 197 889
e 197 963
e 198 290
e 198 344
e 198 390
e 198 564
e 198 690
e 198 699
e 198 704
e 198 708
e 198 744
e 198 809
e 198 832
e 198 908
e 198 929
e 198 955
e 198 982
e 198 996
e 199 258
e 199 331
e 199 333
e 199 341
e 199 478
e 199 481
e 199 522
e 199 590
e 199 598
e 199 634
e 199 648
e 199 666
e 199 681
e 199 725
e 199 730
e 199 790
e 199 839
e 199 878
e 199 900
e 199 908
e 199 915
e 199 943
e 199 952
e 199 962
e 199 971
e 199 990
e 199 998
e 200 260
e 200 266
e 200 293
e 200 304
e 200 343
e 200 381
e 200 397
e 200 428
e 200 479
e 200 532
e 200 562
e 200 588
e 200 611
e 200 622
e 200 645
e 200 665
e 200 702
e 200 714
e 200 715
e 200 802
e 200 862
e 200 873
e 200 879
e 200 953
e 200 988
e 201 332
e 201 412
e 201 422
e 201 458
e 201 496
e 201 540
e 201 548
e 201 603
e 201 604
e 201 644
e 201 648
e 201 674
e 201 719
e 201 771
e 201 812
e 201 818
e 201 819
e 201 843
e 201 860
e 201 978
e 201 988
e 201 995
e 202 313
e 202 330
e 202 412
e 202 440
e 202 466
e 202 507
e 202 542
e 202 579
e 202 583
e 202 604
e 202 612
e 202 615
e 202 633
e 202 708
e 202 731
e 202 807
e 202 818
e 202 823
e 202 850
e 202 895
e 202 951
e 202 953
e 202 959
e 202 981
e 203 378
e 203 417
e 203 428
e 203 476
e 203 489
e 203 499
e 203 549
e 203 573
e 203 575
e 203 645
e 203 659
e 203 743
e 203 756
e 203 767
e 203 772
e 203 779
e 203 784
e 203 792
e 203 837
e 203 841
e 203 902
e 203 957
e 203 996
e 204 251
e 204 270
e 204 273
e 204 305
e 204 323
e 204 373
e 204 394
e 204 430
e 204 440
e 204 442
e 204 479
e 204 492
e 204 511
e 204 555
e 204 581
e 204 608
e 204 634
e 204 654
e 204 687
e 204 716
e 204 768
e 204 783
e 204 877
e 204 889
e 204 894
e 204 991
e 205 349
e 205 356
e 205 403
e 205 416
e 205 423
e 205 431
e 205 444
e 205 451
e 205 496
e 205 535
e 205 687
e 205 692
e 205 701
e 205 727
e 205 755
e 205 779
e 205 799
e 205 803
e 205 811
e 205 873
e 205 893
e 205 910
e 205 917
e 205 962
e 205 995
e 206 297
e 206 467
e 206 472
e 206 517
e 206 584
e 206 603
e 206 607
e 206 609
e 206 714
e 206 716
e 206 728
e 206 901
e 206 909
e 206 925
e 206 948
e 206 963
e 206 975
e 207 297
e 207 301
e 207 312
e 207 323
e 207 384
e 207 402
e 207 438
e 207 449
e 207 501
e 207 536
e 207 566
e 207 570
e 207 587
e 207 663
e 207 699
e 207 739
e 207 743
e 207 745
e 207 777
e 207 803
e 207 819
e 207 820
e 207 858
e 207 874
e 207 875
e 207 896
e 207 915
e 207 950
e 208 255
e 208 337
e 208 354
e 208 361
e 208 374
e 208 380
e 208 399
e 208 450
e 208 464
e 208 530
e 208 533
e 208 536
e 208 609
e 208 614
e 208 747
e 208 751
e 208 816
e 208 828
e 208 906
e 208 948
e 209 276
e 209 326
e 209 370
e 209 383
e 209 385
e 209 402
e 209 478
e 209 497
e 209 513
e 209 568
e 209 584
e 209 599
e 209 659
e 209 791
e 209 794
e 209 829
e 209 832
e 209 899
e 209 919
e 210 260
e 210 323
e 210 349
e 210 391
e 210 392
e 210 442
e 210 466
e 210 531
e 210 551
e 210 555
e 210 596
e 210 623
e 210 658
e 210 667
e 210 686
e 210 747
e 210 798
e 210 803
e 210 853
e 210 859
e 210 875
e 210 887
e 210 998
e 211 253
e 211 255
e 211 261
e 211 271
e 211 306
e 211 361
e 211 369
e 211 378
e 211 412
e 211 464
e 211 476
e 211 494
e 211 586
e 211 611
e 211 652
e 211 756
e 211 776
e 211 842
e 211 855
e 211 922
e 211 968
e 212 279
e 212 319
e 212 352
e 212 353
e 212 376
e 212 427
e 212 462
e 212 528
e 212 541
e 212 616
e 212 632
e 212 654
e 212 664
e 212 708
e 212 804
e 212 809
e 212 849
e 212 860
e 212 918
e 212 947
e 212 956
e 213 272
e 213 273
e 213 277
e 213 387
e 213 390
e 213 407
e 213 453
e 213 459
e 213 474
e 213 475
e 213 494
e 213 511
e 213 533
e 213 555
e 213 587
e 213 612
e 213 620
e 213 623
e 213 630
e 213 716
e 213 738
e 213 742
e 213 797
e 213 823
e 213 892
e 213 938
e 214 315
e 214 352
e 214 357
e 214 379
e 214 406
e 214 411
e 214 421
e 214 459
e 214 511
e 214 522
e 214 602
e 214 604
e 214 652
e 214 674
e 214 678
e 214 720
e 214 780
e 214 807
e 214 822
e 214 849
e 214 870
e 214 871
e 214 872
e 214 962
e 214 996
e 215 360
e 215 430
e 215 440
e 215 468
e 215 514
e 215 538
e 215 539
e 215 547
e 215 569
e 215 599
e 215 633
e 215 655
e 215 683
e 215 690
e 215 713
e 215 783
e 215 829
e 215 837
e 215 839
e 215 847
e 215 876
e 215 897
e 215 920
e 215 926
e 215 952
e 215 959
e 215 989
e 216 312
e 216 322
e 216 345
e 216 361
e 216 363
e 216 405
e 216 418
e 216 428
e 216 439
e 216 446
e 216 512
e 216 527
e 216 580
e 216 591
e 216 611
e 216 621
e 216 630
e 216 647
e 216 673
e 216 688
e 216 741
e 216 770
e 216 811
e 216 871
e 216 896
e 216 943
e 217 295
e 217 300
e 217 344
e 217 345
e 217 357
e 217 358
e 217 416
e 217 420
e 217 427
e 217 428
e 217 436
e 217 455
e 217 599
e 217 636
e 217 661
e 217 675
e 217 683
e 217 794
e 217 845
e 217 946
e 218 275
e 218 333
e 218 361
e 218 362
e 218 393
e 218 419
e 218 449
e 218 528
e 218 536
e 218 546
e 218 557
e 218 609
e 218 631
e 218 671
e 218 693
e 218 700
e 218 709
e 218 719
e 218 721
e 218 771
e 218 778
e 218 800
e 218 862
e 218 874
e 218 892
e 218 928
e 218 951
e 218 994
e 219 290
e 219 392
e 219 404
e 219 442
e 219 467
e 219 552
e 219 590
e 219 635
e 219 640
e 219 715
e 219 759
e 219 815
e 219 870
e 219 886
e 219 925
e 219 946
e 220 324
e 220 353
e 220 354
e 220 460
e 220 489
e 220 490
e 220 494
e 220 498
e 220 550
e 220 592
e 220 638
e 220 644
e 220 722
e 220 734
e 220 742
e 220 747
e 220 884
e 220 885
e 220 908
e 220 918
e 220 958
e 220 959
e 220 965
e 220 975
e 220 985
e 221 260
e 221 261
e 221 271
e 221 286
e 221 338
e 221 353
e 221 356
e 221 408
e 221 488
e 221 669
e 221 846
e 221 853
e 221 890
e 221 935
e 221 960
e 221 961
e 221 979
e 221 982
e 222 334
e 222 390
e 222 404
e 222 446
e 222 462
e 222 477
e 222 483
e 222 511
e 222 610
e 222 614
e 222 649
e 222 663
e 222 664
e 222 699
e 222 768
e 222 809
e 222 814
e 222 815
e 222 895
e 222 901
e 222 972
e 222 987
e 223 298
e 223 340
e 223 352
e 223 362
e 223 410
e 223 455
e 223 497
e 223 548
e 223 550
e 223 593
e 223 597
e 223 632
e 223 634
e 223 647
e 223 650
e 223 699
e 223 702
e 223 766
e 223 833
e 223 945
e 223 952
e 223 956
e 223 994
e 223 997
e 224 261
e 224 284
e 224 317
e 224 325
e 224 331
e 224 381
e 224 440
e 224 472
e 224 485
e 224 487
e 224 550
e 224 669
e 224 684
e 224 707
e 224 752
e 224 864
e 224 867
e 224 895
e 224 940
e 224 943
e 224 968
e 225 262
e 225 271
e 225 357
e 225 361
e 225 399
e 225 456
e 225 500
e 225 513
e 225 526
e 225 537
e 225 539
e 225 565
e 225 577
e 225 685
e 225 686
e 225 695
e 225 736
e 225 746
e 225 788
e 225 798
e 225 825
e 225 869
e 225 888
e 225 924
e 225 930
e 225 933
e 225 942
e 225 953
e 225 986
e 226 263
e 226 356
e 226 365
e 226 397
e 226 456
e 226 458
e 226 552
e 226 559
e 226 577
e 226 610
e 226 652
e 226 760
e 226 805
e 226 894
e 226 897
e 226 906
e 226 924
e 226 944
e 227 256
e 227 345
e 227 367
e 227 387
e 227 423
e 227 470
e 227 509
e 227 523
e 227 555
e 227 573
e 227 697
e 227 709
e 227 721
e 227 731
e 227 762
e 227 792
e 227 806
e 227 871
e 227 933
e 227 942
e 227 960
e 227 988
e 228 257
e 228 264
e 228 290
e 228 306
e 228 317
e 228 338
e 228 365
e 228 382
e 228 397
e 228 407
e 228 438
e 228 439
e 228 444
e 228 451
e 228 476
e 228 484
e 228 490
e 228 512
e 228 567
e 228 626
e 228 647
e 228 650
e 228 725
e 228 727
e 228 754
e 228 783
e 228 787
e 228 853
e 228 856
e 228 900
e 228 954
e 228 958
e 228 973
e 229 259
e 229 267
e 229 315
e 229 320
e 229 458
e 229 498
e 229 537
e 229 550
e 229 571
e 229 607
e 229 622
e 229 630
e 229 648
e 229 668
e 229 762
e 229 823
e 229 829
e 229 847
e 229 906
e 229 910
e 229 969
e 229 975
e 229 980
e 229 995
e 230 267
e 230 336
e 230 356
e 230 359
e 230 435
e 230 452
e 230 455
e 230 468
e 230 532
e 230 635
e 230 665
e 230 676
e 230 725
e 230 742
e 230 760
e 230 785
e 230 879
e 230 883
e 231 338
e 231 339
e 231 388
e 231 495
e 231 515
e 231 544
e 231 560
e 231 600
e 231 668
e 231 723
e 231 743
e 231 752
e 231 785
e 231 838
e 231 855
e 231 896
e 231 899
e 231 914
e 231 924
e 231 944
e 231 988
e 232 265
e 232 295
e 232 357
e 232 363
e 232 382
e 232 404
e 232 477
e 232 498
e 232 618
e 232 663
e 232 693
e 232 735
e 232 757
e 232 781
e 232 818
e 232 821
e 232 836
e 232 903
e 232 906
e 232 973
e 233 286
e 233 339
e 233 390
e 233 408
e 233 453
e 233 496
e 233 518
e 233 550
e 233 589
e 233 590
e 233 665
e 233 686
e 233 707
e 233 708
e 233 710
e 233 728
e 233 765
e 233 778
e 233 869
e 233 891
e 233 893
e 233 930
e 234 290
e 234 297
e 234 307
e 234 332
e 234 349
e 234 354
e 234 364
e 234 387
e 234 468
e 234 473
e 234 546
e 234 549
e 234 588
e 234 592
e 234 645
e 234 688
e 234 721
e 234 751
e 234 759
e 234 846
e 234 851
e 234 874
e 234 876
e 234 946
e 234 963
e 234 975
e 234 992
e 235 279
e 235 366
e 235 410
e 235 490
e 235 496
e 235 532
e 235 551
e 235 557
e 235 605
e 235 614
e 235 615
e 235 629
e 235 708
e 235 794
e 235 795
e 235 867
e 235 876
e 235 938
e 235 949
e 235 974
e 235 985
e 235 987
e 236 251
e 236 313
e 236 335
e 236 365
e 236 388
e 236 422
e 236 452
e 236 483
e 236 548
e 236 549
e 236 562
e 236 607
e 236 621
e 236 631
e 236 642
e 236 716
e 236 823
e 236 855
e 236 888
e 236 901
e 236 912
e 236 948
e 236 957
e 237 256
e 237 289
e 237 338
e 237 398
e 237 418
e 237 425
e 237 455
e 237 462
e 237 467
e 237 475
e 237 607
e 237 615
e 237 620
e 237 629
e 237 649
e 237 665
e 237 680
e 237 806
e 237 842
e 237 889
e 237 896
e 237 932
e 237 942
e 237 969
e 238 261
e 238 265
e 238 292
e 238 293
e 238 303
e 238 312
e 238 343
e 238 378
e 238 379
e 238 395
e 238 426
e 238 456
e 238 497
e 238 498
e 238 515
e 238 526
e 238 539
e 238 617
e 238 653
e 238 707
e 238 718
e 238 719
e 238 724
e 238 733
e 238 766
e 238 811
e 238 832
e 238 859
e 238 877
e 238 922
e 238 925
e 238 926
e 238 947
e 239 280
e 239 344
e 239 363
e 239 455
e 239 487
e 239 491
e 239 527
e 239 571
e 239 729
e 239 756
e 239 757
e 239 782
e 239 839
e 239 867
e 239 880
e 239 894
e 239 938
e 239 967
e 240 259
e 240 359
e 240 582
e 240 631
e 240 723
e 240 799
e 240 822
e 240 842
e 241 307
e 241 337
e 241 343
e 241 373
e 241 396
e 241 464
e 241 467
e 241 503
e 241 535
e 241 561
e 241 600
e 241 620
e 241 694
e 241 713
e 241 784
e 241 786
e 241 798
e 241 801
e 241 909
e 241 918
e 241 937
e 241 943
e 241 967
e 242 352
e 242 453
e 242 505
e 242 509
e 242 518
e 242 519
e 242 569
e 242 611
e 242 639
e 242 675
e 242 689
e 242 693
e 242 855
e 242 924
e 243 268
e 243 272
e 243 286
e 243 291
e 243 299
e 243 304
e 243 317
e 243 344
e 243 365
e 243 374
e 243 375
e 243 411
e 243 515
e 243 604
e 243 668
e 243 686
e 243 718
e 243 747
e 243 751
e 243 821
e 243 841
e 243 846
e 243 922
e 243 927
e 243 970
e 243 986
e 243 993
e 244 252
e 244 259
e 244 266
e 244 344
e 244 352
e 244 414
e 244 460
e 244 478
e 244 499
e 244 500
e 244 518
e 244 551
e 244 560
e 244 584
e 244 630
e 244 677
e 244 678
e 244 743
e 244 797
e 244 822
e 244 829
e 244 837
e 244 900
e 244 909
e 244 916
e 244 934
e 244 973
e 244 977
e 244 986
e 244 995
e 245 252
e 245 265
e 245 272
e 245 314
e 245 344
e 245 397
e 245 449
e 245 455
e 245 468
e 245 476
e 245 517
e 245 550
e 245 601
e 245 607
e 245 650
e 245 651
e 245 691
e 245 700
e 245 707
e 245 713
e 245 720
e 245 766
e 245 775
e 245 780
e 245 858
e 245 878
e 245 883
e 245 891
e 245 900
e 245 941
e 245 951
e 245 963
e 245 971
e 245 986
e 245 990
e 245 991
e 246 275
e 246 312
e 246 331
e 246 333
e 246 353
e 246 377
e 246 402
e 246 437
e 246 442
e 246 462
e 246 468
e 246 514
e 246 517
e 246 595
e 246 615
e 246 631
e 246 637
e 246 642
e 246 648
e 246 650
e 246 669
e 246 673
e 246 740
e 246 769
e 246 842
e 246 854
e 246 889
e 246 905
e 246 934
e 247 262
e 247 265
e 247 284
e 247 328
e 247 335
e 247 434
e 247 442
e 247 458
e 247 483
e 247 486
e 247 502
e 247 506
e 247 574
e 247 643
e 247 669
e 247 686
e 247 699
e 247 738
e 247 815
e 247 877
e 247 970
e 247 974
e 247 978
e 247 982
e 247 989
e 248 270
e 248 285
e 248 317
e 248 327
e 248 346
e 248 358
e 248 379
e 248 401
e 248 434
e 248 440
e 248 504
e 248 506
e 248 516
e 248 575
e 248 627
e 248 645
e 248 667
e 248 701
e 248 713
e 248 744
e 248 773
e 248 825
e 248 874
e 248 910
e 248 931
e 249 253
e 249 267
e 249 305
e 249 335
e 249 389
e 249 405
e 249 410
e 249 412
e 249 417
e 249 488
e 249 509
e 249 513
e 249 520
e 249 584
e 249 618
e 249 650
e 249 829
e 249 872
e 249 926
e 249 937
e 249 943
e 249 957
e 250 304
e 250 330
e 250 357
e 250 366
e 250 388
e 250 405
e 250 412
e 250 493
e 250 586
e 250 599
e 250 619
e 250 675
e 250 717
e 250 732
e 250 764
e 250 849
e 250 856
e 250 869
e 250 892
e 250 936
e 250 944
e 250 951
e 250 966
